     Program PWSCF v.7.3.1 starts on 17Jan2025 at 10:14:34

     Reading input from espresso.pwi
Warning: card   &CELL ignored
Warning: card      CELL_DOFREE = 'IBRAV' ignored
Warning: card / ignored

     Current dimensions of program PWSCF are:
     Max number of different atomic species (ntypx) = 10
     Max number of k-points (npk) =  40000
     Max angular momentum in pseudopotentials (lmaxx) =  4

     IMPORTANT: XC functional enforced from input :
     Exchange-correlation= RVV10
                           (   1   4  13   4  26   0   0)
     Any further DFT definition will be discarded
     Please, verify this is what you really want

     gamma-point specific algorithms are used
     Message from routine setup:
     using ibrav=0 with symmetry is DISCOURAGED, use correct ibrav instead

     R & G space division:  proc/nbgrp/npool/nimage =      36
     Subspace diagonalization in iterative solution of the eigenvalue problem:
     one sub-group per band group will be used

     Using Slab Decomposition

     Title:
     calc

     bravais-lattice index     =            0
     lattice parameter (alat)  =      34.0151  a.u.
     unit-cell volume          =   39356.2868 (a.u.)^3
     number of atoms/cell      =           56
     number of atomic types    =            2
     number of electrons       =       881.00
     number of Kohn-Sham states=          529
     kinetic-energy cutoff     =      60.0000  Ry
     charge density cutoff     =     480.0000  Ry
     scf convergence threshold =      1.0E-06
     mixing beta               =       0.2000
     number of iterations used =            8  plain     mixing
     energy convergence thresh.=      1.0E-04
     force convergence thresh. =      1.0E-03
     Exchange-correlation= RVV10
                           (   1   4  13   4  26   0   0)
     nstep                     =        10000

     celldm(1)=  34.015070  celldm(2)=   0.000000  celldm(3)=   0.000000
     celldm(4)=   0.000000  celldm(5)=   0.000000  celldm(6)=   0.000000

     crystal axes: (cart. coord. in units of alat)
               a(1) = (   1.000000   0.000000   0.000000 )
               a(2) = (   0.000000   1.000000   0.000000 )
               a(3) = (   0.000000   0.000000   1.000000 )

     reciprocal axes: (cart. coord. in units 2 pi/alat)
               b(1) = (  1.000000  0.000000  0.000000 )
               b(2) = (  0.000000  1.000000  0.000000 )
               b(3) = (  0.000000  0.000000  1.000000 )

     PseudoPot. # 1 for Pt read from file:
     /home/james/work/espresso/SSSP_1.3.0_PBE_efficiency/pt_pbe_v1.4.uspp.F.UPF
     MD5 check sum: f09d6de1a584b5a045c4fc126da2d0c4
     Pseudo is Ultrasoft + core correction, Zval = 16.0
     Generated by new atomic code, or converted to UPF format
     Using radial grid of  985 points,  6 beta functions with:
                l(1) =   0
                l(2) =   0
                l(3) =   1
                l(4) =   1
                l(5) =   2
                l(6) =   2
     Q(r) pseudized with  8 coefficients,  rinner =    1.300   1.300   1.300
                                                       1.300   1.300

     PseudoPot. # 2 for H  read from file:
     /home/james/work/espresso/SSSP_1.3.0_PBE_efficiency/H.pbe-rrkjus_psl.1.0.0.UPF
     MD5 check sum: f52b6d4d1c606e5624b1dc7b2218f220
     Pseudo is Ultrasoft, Zval =  1.0
     Generated using "atomic" code by A. Dal Corso  v.5.1
     Using radial grid of  929 points,  2 beta functions with:
                l(1) =   0
                l(2) =   0
     Q(r) pseudized with 0 coefficients

     atomic species   valence    mass     pseudopotential
     Pt               16.00   195.08400     Pt( 1.00)
     H                 1.00     1.00800     H ( 1.00)

     Starting magnetic structure
     atomic species   magnetization
     Pt              0.010
     H               0.020

      2 Sym. Ops. (no inversion) found

                                    s                        frac. trans.

      isym =  1     identity

 cryst.   s( 1) = (     1          0          0      )
                  (     0          1          0      )
                  (     0          0          1      )

 cart.    s( 1) = (  1.0000000  0.0000000  0.0000000 )
                  (  0.0000000  1.0000000  0.0000000 )
                  (  0.0000000  0.0000000  1.0000000 )

      isym =  2     inv. 180 deg rotation - cart. axis [0,1,-1]

 cryst.   s( 2) = (     1          0          0      )
                  (     0          0          1      )
                  (     0          1          0      )

 cart.    s( 2) = (  1.0000000  0.0000000  0.0000000 )
                  (  0.0000000  0.0000000  1.0000000 )
                  (  0.0000000  1.0000000  0.0000000 )

   Cartesian axes

     site n.     atom                  positions (alat units)
         1        Pt     tau(   1) = (  -0.2177778  -0.1088889  -0.1088889  )
         2        Pt     tau(   2) = (  -0.1088889  -0.2177778  -0.1088889  )
         3        Pt     tau(   3) = (  -0.1088889  -0.1088889  -0.2177778  )
         4        Pt     tau(   4) = (  -0.2177778  -0.2177778   0.0000000  )
         5        Pt     tau(   5) = (  -0.2177778  -0.1088889   0.1088889  )
         6        Pt     tau(   6) = (  -0.1088889  -0.2177778   0.1088889  )
         7        Pt     tau(   7) = (  -0.1088889  -0.1088889   0.0000000  )
         8        Pt     tau(   8) = (  -0.1088889  -0.1088889   0.2177778  )
         9        Pt     tau(   9) = (  -0.2177778   0.0000000  -0.2177778  )
        10        Pt     tau(  10) = (  -0.2177778   0.1088889  -0.1088889  )
        11        Pt     tau(  11) = (  -0.1088889   0.0000000  -0.1088889  )
        12        Pt     tau(  12) = (  -0.1088889   0.1088889  -0.2177778  )
        13        Pt     tau(  13) = (  -0.2177778   0.0000000   0.0000000  )
        14        Pt     tau(  14) = (  -0.2177778   0.1088889   0.1088889  )
        15        Pt     tau(  15) = (  -0.1088889   0.0000000   0.1088889  )
        16        Pt     tau(  16) = (  -0.1088889   0.1088889   0.0000000  )
        17        Pt     tau(  17) = (  -0.2177778   0.0000000   0.2177778  )
        18        Pt     tau(  18) = (  -0.1088889   0.1088889   0.2177778  )
        19        Pt     tau(  19) = (  -0.1088889   0.2177778  -0.1088889  )
        20        Pt     tau(  20) = (  -0.2177778   0.2177778   0.0000000  )
        21        Pt     tau(  21) = (  -0.1088889   0.2177778   0.1088889  )
        22        Pt     tau(  22) = (   0.0000000  -0.2177778  -0.2177778  )
        23        Pt     tau(  23) = (   0.0000000  -0.1088889  -0.1088889  )
        24        Pt     tau(  24) = (   0.1088889  -0.2177778  -0.1088889  )
        25        Pt     tau(  25) = (   0.1088889  -0.1088889  -0.2177778  )
        26        Pt     tau(  26) = (   0.0000000  -0.2177778   0.0000000  )
        27        Pt     tau(  27) = (   0.0000000  -0.1088889   0.1088889  )
        28        Pt     tau(  28) = (   0.1088889  -0.2177778   0.1088889  )
        29        Pt     tau(  29) = (   0.1088889  -0.1088889   0.0000000  )
        30        Pt     tau(  30) = (   0.0000000  -0.2177778   0.2177778  )
        31        Pt     tau(  31) = (   0.1088889  -0.1088889   0.2177778  )
        32        Pt     tau(  32) = (   0.0000000   0.0000000  -0.2177778  )
        33        Pt     tau(  33) = (   0.0000000   0.1088889  -0.1088889  )
        34        Pt     tau(  34) = (   0.1088889   0.0000000  -0.1088889  )
        35        Pt     tau(  35) = (   0.1088889   0.1088889  -0.2177778  )
        36        Pt     tau(  36) = (   0.0000000   0.0000000   0.0000000  )
        37        Pt     tau(  37) = (   0.0000000   0.1088889   0.1088889  )
        38        Pt     tau(  38) = (   0.1088889   0.0000000   0.1088889  )
        39        Pt     tau(  39) = (   0.1088889   0.1088889   0.0000000  )
        40        Pt     tau(  40) = (   0.0000000   0.0000000   0.2177778  )
        41        Pt     tau(  41) = (   0.1088889   0.1088889   0.2177778  )
        42        Pt     tau(  42) = (   0.0000000   0.2177778  -0.2177778  )
        43        Pt     tau(  43) = (   0.1088889   0.2177778  -0.1088889  )
        44        Pt     tau(  44) = (   0.0000000   0.2177778   0.0000000  )
        45        Pt     tau(  45) = (   0.1088889   0.2177778   0.1088889  )
        46        Pt     tau(  46) = (   0.0000000   0.2177778   0.2177778  )
        47        Pt     tau(  47) = (   0.2177778  -0.1088889  -0.1088889  )
        48        Pt     tau(  48) = (   0.2177778  -0.2177778   0.0000000  )
        49        Pt     tau(  49) = (   0.2177778  -0.1088889   0.1088889  )
        50        Pt     tau(  50) = (   0.2177778   0.0000000  -0.2177778  )
        51        Pt     tau(  51) = (   0.2177778   0.1088889  -0.1088889  )
        52        Pt     tau(  52) = (   0.2177778   0.0000000   0.0000000  )
        53        Pt     tau(  53) = (   0.2177778   0.1088889   0.1088889  )
        54        Pt     tau(  54) = (   0.2177778   0.0000000   0.2177778  )
        55        Pt     tau(  55) = (   0.2177778   0.2177778   0.0000000  )
        56        H      tau(  56) = (  -0.3013792  -0.1476884  -0.1476884  )

   Crystallographic axes

     site n.     atom                  positions (cryst. coord.)
         1        Pt     tau(   1) = ( -0.2177778 -0.1088889 -0.1088889  )
         2        Pt     tau(   2) = ( -0.1088889 -0.2177778 -0.1088889  )
         3        Pt     tau(   3) = ( -0.1088889 -0.1088889 -0.2177778  )
         4        Pt     tau(   4) = ( -0.2177778 -0.2177778  0.0000000  )
         5        Pt     tau(   5) = ( -0.2177778 -0.1088889  0.1088889  )
         6        Pt     tau(   6) = ( -0.1088889 -0.2177778  0.1088889  )
         7        Pt     tau(   7) = ( -0.1088889 -0.1088889  0.0000000  )
         8        Pt     tau(   8) = ( -0.1088889 -0.1088889  0.2177778  )
         9        Pt     tau(   9) = ( -0.2177778  0.0000000 -0.2177778  )
        10        Pt     tau(  10) = ( -0.2177778  0.1088889 -0.1088889  )
        11        Pt     tau(  11) = ( -0.1088889  0.0000000 -0.1088889  )
        12        Pt     tau(  12) = ( -0.1088889  0.1088889 -0.2177778  )
        13        Pt     tau(  13) = ( -0.2177778  0.0000000  0.0000000  )
        14        Pt     tau(  14) = ( -0.2177778  0.1088889  0.1088889  )
        15        Pt     tau(  15) = ( -0.1088889  0.0000000  0.1088889  )
        16        Pt     tau(  16) = ( -0.1088889  0.1088889  0.0000000  )
        17        Pt     tau(  17) = ( -0.2177778  0.0000000  0.2177778  )
        18        Pt     tau(  18) = ( -0.1088889  0.1088889  0.2177778  )
        19        Pt     tau(  19) = ( -0.1088889  0.2177778 -0.1088889  )
        20        Pt     tau(  20) = ( -0.2177778  0.2177778  0.0000000  )
        21        Pt     tau(  21) = ( -0.1088889  0.2177778  0.1088889  )
        22        Pt     tau(  22) = (  0.0000000 -0.2177778 -0.2177778  )
        23        Pt     tau(  23) = (  0.0000000 -0.1088889 -0.1088889  )
        24        Pt     tau(  24) = (  0.1088889 -0.2177778 -0.1088889  )
        25        Pt     tau(  25) = (  0.1088889 -0.1088889 -0.2177778  )
[...]
     atom   12 type  1   force =     0.00837191   -0.00722928    0.02414252
     atom   13 type  1   force =     0.02867411   -0.00068578   -0.00068580
     atom   14 type  1   force =     0.02574039   -0.00825678   -0.00825676
     atom   15 type  1   force =    -0.00450840    0.00029099    0.00490498
     atom   16 type  1   force =    -0.00450841    0.00490500    0.00029100
     atom   17 type  1   force =     0.01236411   -0.00049273   -0.01249788
     atom   18 type  1   force =     0.00831961   -0.00840449   -0.02541601
     atom   19 type  1   force =     0.00853254   -0.02578348    0.00882017
     atom   20 type  1   force =     0.01236391   -0.01249769   -0.00049270
     atom   21 type  1   force =     0.00831962   -0.02541599   -0.00840446
     atom   22 type  1   force =     0.00003483    0.01318105    0.01318107
     atom   23 type  1   force =    -0.00019884   -0.00455461   -0.00455461
     atom   24 type  1   force =    -0.00857685    0.02581749    0.00888130
     atom   25 type  1   force =    -0.00857685    0.00888128    0.02581750
     atom   26 type  1   force =     0.00089190    0.02998986   -0.00023512
     atom   27 type  1   force =    -0.00039308   -0.00572722    0.00439158
     atom   28 type  1   force =    -0.00811314    0.02485290   -0.00796856
     atom   29 type  1   force =     0.00412646   -0.00484466   -0.00013782
     atom   30 type  1   force =    -0.00006148    0.01261077   -0.01193463
     atom   31 type  1   force =    -0.00784961    0.00983793   -0.02694160
     atom   32 type  1   force =     0.00089190   -0.00023510    0.02998988
     atom   33 type  1   force =    -0.00039312    0.00439157   -0.00572723
     atom   34 type  1   force =     0.00412646   -0.00013783   -0.00484464
     atom   35 type  1   force =    -0.00811311   -0.00796854    0.02485285
     atom   36 type  1   force =     0.00092385    0.00093093    0.00093096
     atom   37 type  1   force =    -0.00038949    0.00508044    0.00508043
     atom   38 type  1   force =     0.00516918    0.00020094    0.00492045
     atom   39 type  1   force =     0.00516918    0.00492043    0.00020095
     atom   40 type  1   force =    -0.00019600   -0.00024251   -0.03057263
     atom   41 type  1   force =    -0.00848377   -0.00813188   -0.02544321
     atom   42 type  1   force =    -0.00006148   -0.01193442    0.01261056
     atom   43 type  1   force =    -0.00784959   -0.02694154    0.00983792
     atom   44 type  1   force =    -0.00019601   -0.03057265   -0.00024253
     atom   45 type  1   force =    -0.00848377   -0.02544323   -0.00813188
     atom   46 type  1   force =     0.00029534   -0.01227719   -0.01227716
     atom   47 type  1   force =    -0.02596713    0.00854572    0.00854573
     atom   48 type  1   force =    -0.01280491    0.01310540   -0.00000313
     atom   49 type  1   force =    -0.02537093    0.00830269   -0.00845933
     atom   50 type  1   force =    -0.01280485   -0.00000315    0.01310536
     atom   51 type  1   force =    -0.02537091   -0.00845932    0.00830269
     atom   52 type  1   force =    -0.03041099   -0.00006691   -0.00006691
     atom   53 type  1   force =    -0.02598010   -0.00845413   -0.00845412
     atom   54 type  1   force =    -0.01182887   -0.00074713   -0.01192338
     atom   55 type  1   force =    -0.01182880   -0.01192333   -0.00074713
     atom   56 type  2   force =     0.00000000    0.00000000    0.00000000
     The Hubbard contrib.    to forces
     atom    1 type  1   force =     0.00000000    0.00000000    0.00000000
     atom    2 type  1   force =     0.00000000    0.00000000    0.00000000
     atom    3 type  1   force =     0.00000000    0.00000000    0.00000000
     atom    4 type  1   force =     0.00000000    0.00000000    0.00000000
     atom    5 type  1   force =     0.00000000    0.00000000    0.00000000
     atom    6 type  1   force =     0.00000000    0.00000000    0.00000000
     atom    7 type  1   force =     0.00000000    0.00000000    0.00000000
     atom    8 type  1   force =     0.00000000    0.00000000    0.00000000
     atom    9 type  1   force =     0.00000000    0.00000000    0.00000000
     atom   10 type  1   force =     0.00000000    0.00000000    0.00000000
     atom   11 type  1   force =     0.00000000    0.00000000    0.00000000
     atom   12 type  1   force =     0.00000000    0.00000000    0.00000000
     atom   13 type  1   force =     0.00000000    0.00000000    0.00000000
     atom   14 type  1   force =     0.00000000    0.00000000    0.00000000
     atom   15 type  1   force =     0.00000000    0.00000000    0.00000000
     atom   16 type  1   force =     0.00000000    0.00000000    0.00000000
     atom   17 type  1   force =     0.00000000    0.00000000    0.00000000
     atom   18 type  1   force =     0.00000000    0.00000000    0.00000000
     atom   19 type  1   force =     0.00000000    0.00000000    0.00000000
     atom   20 type  1   force =     0.00000000    0.00000000    0.00000000
     atom   21 type  1   force =     0.00000000    0.00000000    0.00000000
     atom   22 type  1   force =     0.00000000    0.00000000    0.00000000
     atom   23 type  1   force =     0.00000000    0.00000000    0.00000000
     atom   24 type  1   force =     0.00000000    0.00000000    0.00000000
     atom   25 type  1   force =     0.00000000    0.00000000    0.00000000
     atom   26 type  1   force =     0.00000000    0.00000000    0.00000000
     atom   27 type  1   force =     0.00000000    0.00000000    0.00000000
     atom   28 type  1   force =     0.00000000    0.00000000    0.00000000
     atom   29 type  1   force =     0.00000000    0.00000000    0.00000000
     atom   30 type  1   force =     0.00000000    0.00000000    0.00000000
     atom   31 type  1   force =     0.00000000    0.00000000    0.00000000
     atom   32 type  1   force =     0.00000000    0.00000000    0.00000000
     atom   33 type  1   force =     0.00000000    0.00000000    0.00000000
     atom   34 type  1   force =     0.00000000    0.00000000    0.00000000
     atom   35 type  1   force =     0.00000000    0.00000000    0.00000000
     atom   36 type  1   force =     0.00000000    0.00000000    0.00000000
     atom   37 type  1   force =     0.00000000    0.00000000    0.00000000
     atom   38 type  1   force =     0.00000000    0.00000000    0.00000000
     atom   39 type  1   force =     0.00000000    0.00000000    0.00000000
     atom   40 type  1   force =     0.00000000    0.00000000    0.00000000
     atom   41 type  1   force =     0.00000000    0.00000000    0.00000000
     atom   42 type  1   force =     0.00000000    0.00000000    0.00000000
     atom   43 type  1   force =     0.00000000    0.00000000    0.00000000
     atom   44 type  1   force =     0.00000000    0.00000000    0.00000000
     atom   45 type  1   force =     0.00000000    0.00000000    0.00000000
     atom   46 type  1   force =     0.00000000    0.00000000    0.00000000
     atom   47 type  1   force =     0.00000000    0.00000000    0.00000000
     atom   48 type  1   force =     0.00000000    0.00000000    0.00000000
     atom   49 type  1   force =     0.00000000    0.00000000    0.00000000
     atom   50 type  1   force =     0.00000000    0.00000000    0.00000000
     atom   51 type  1   force =     0.00000000    0.00000000    0.00000000
     atom   52 type  1   force =     0.00000000    0.00000000    0.00000000
     atom   53 type  1   force =     0.00000000    0.00000000    0.00000000
     atom   54 type  1   force =     0.00000000    0.00000000    0.00000000
     atom   55 type  1   force =     0.00000000    0.00000000    0.00000000
     atom   56 type  2   force =     0.00000000    0.00000000    0.00000000
     The SCF correction term to forces
     atom    1 type  1   force =     0.00000746    0.00003791    0.00000362
     atom    2 type  1   force =     0.00000768    0.00001057    0.00001811
     atom    3 type  1   force =     0.00000757    0.00005328    0.00000243
     atom    4 type  1   force =     0.00001278    0.00000523    0.00001383
     atom    5 type  1   force =     0.00002667    0.00000905    0.00000730
     atom    6 type  1   force =     0.00004496    0.00001475    0.00001394
     atom    7 type  1   force =     0.00003178    0.00003789    0.00002192
     atom    8 type  1   force =     0.00001958   -0.00004990   -0.00002346
     atom    9 type  1   force =     0.00003013    0.00003836    0.00000812
     atom   10 type  1   force =     0.00005228    0.00002134   -0.00000512
     atom   11 type  1   force =     0.00003354    0.00006955    0.00000177
     atom   12 type  1   force =     0.00005357    0.00002083    0.00003448
     atom   13 type  1   force =     0.00002465    0.00004844    0.00000791
     atom   14 type  1   force =    -0.00000855    0.00000063   -0.00003482
     atom   15 type  1   force =    -0.00000617   -0.00003876   -0.00003947
     atom   16 type  1   force =    -0.00000411   -0.00000296   -0.00008649
     atom   17 type  1   force =    -0.00000982   -0.00002841   -0.00001480
     atom   18 type  1   force =    -0.00006596   -0.00004698    0.00000330
     atom   19 type  1   force =     0.00002914   -0.00004326   -0.00005630
     atom   20 type  1   force =     0.00000820   -0.00001757   -0.00005335
     atom   21 type  1   force =    -0.00006565    0.00001160   -0.00008257
     atom   22 type  1   force =    -0.00001143    0.00001400   -0.00000109
     atom   23 type  1   force =    -0.00000008    0.00007206    0.00003425
     atom   24 type  1   force =    -0.00001094   -0.00000128    0.00003113
     atom   25 type  1   force =    -0.00001788    0.00005495   -0.00000713
     atom   26 type  1   force =     0.00000906    0.00001732    0.00005744
     atom   27 type  1   force =     0.00000249   -0.00004136   -0.00000128
     atom   28 type  1   force =    -0.00003419    0.00000629    0.00002126
     atom   29 type  1   force =    -0.00004014    0.00000735    0.00004458
     atom   30 type  1   force =     0.00000450   -0.00000384   -0.00003217
     atom   31 type  1   force =    -0.00003326   -0.00007539   -0.00002341
     atom   32 type  1   force =    -0.00000161    0.00008706    0.00002642
     atom   33 type  1   force =    -0.00001210    0.00002144   -0.00006294
     atom   34 type  1   force =    -0.00005346    0.00007757   -0.00001708
     atom   35 type  1   force =    -0.00005909    0.00003046    0.00001850
     atom   36 type  1   force =    -0.00001342    0.00001560   -0.00003515
     atom   37 type  1   force =    -0.00003915   -0.00005584   -0.00009445
     atom   38 type  1   force =    -0.00002456   -0.00007435   -0.00003110
     atom   39 type  1   force =    -0.00003795   -0.00000584   -0.00010748
     atom   40 type  1   force =    -0.00001426   -0.00010192   -0.00001016
     atom   41 type  1   force =     0.00003502   -0.00005280    0.00002176
     atom   42 type  1   force =    -0.00000572   -0.00004973    0.00001416
     atom   43 type  1   force =    -0.00005805   -0.00003456   -0.00008409
     atom   44 type  1   force =    -0.00002485   -0.00001934   -0.00013185
     atom   45 type  1   force =     0.00002806    0.00002811   -0.00007746
     atom   46 type  1   force =    -0.00002065    0.00003089    0.00001546
     atom   47 type  1   force =    -0.00001869    0.00001660   -0.00000035
     atom   48 type  1   force =    -0.00002117   -0.00000828    0.00003182
     atom   49 type  1   force =    -0.00003554   -0.00003793    0.00001340
     atom   50 type  1   force =    -0.00003573    0.00004629   -0.00000854
     atom   51 type  1   force =    -0.00005538    0.00002350   -0.00004731
     atom   52 type  1   force =    -0.00002436   -0.00000234   -0.00002167
     atom   53 type  1   force =     0.00002728   -0.00001653   -0.00003416
     atom   54 type  1   force =     0.00000605   -0.00006960    0.00000689
     atom   55 type  1   force =    -0.00000874    0.00000764   -0.00008429
     atom   56 type  2   force =    -0.00000256    0.00000072   -0.00000047

     Total force =     0.003595     Total SCF correction =     0.000503
     SCF correction compared to forces is large: reduce conv_thr to get better values
     Energy error            =      2.4E-05 Ry
     Gradient error          =      8.5E-04 Ry/Bohr

     bfgs converged in  16 scf cycles and  15 bfgs steps
     (criteria: energy <  1.0E-04 Ry, force <  1.0E-03 Ry/Bohr)

     End of BFGS Geometry Optimization

     Final energy             =  -11591.5337960884 Ry

     File ./out/calc.bfgs deleted, as requested
Begin final coordinates

ATOMIC_POSITIONS (angstrom)
Pt              -4.0205752542       -1.9614732447       -1.9614732447
Pt              -1.9244496387       -3.9355747042       -1.9044389277
Pt              -1.9244496387       -1.9044389277       -3.9355747042
Pt              -3.7962730026       -3.8229193172        0.0258760769
Pt              -3.9483543966       -1.9078992057        1.9208525127
Pt              -1.8954892163       -3.9118350072        1.9130971636
Pt              -1.9669728527       -1.9261361313       -0.0272690831
Pt              -1.9080246168       -1.9053492389        3.9471112937
Pt              -3.7962730026        0.0258760769       -3.8229193172
Pt              -3.9483543966        1.9208525127       -1.9078992057
Pt              -1.9669728527       -0.0272690831       -1.9261361313
Pt              -1.8954892163        1.9130971636       -3.9118350072
Pt              -4.1685973678       -0.0297658055       -0.0297658055
Pt              -3.9180783334        1.8915678744        1.8915678744
Pt              -1.9294863962       -0.0187906129        1.9151901085
Pt              -1.9294863962        1.9151901085       -0.0187906129
Pt              -3.8059353548       -0.0017819959        3.8093567664
Pt              -1.9033293386        1.9005457983        3.9297872814
Pt              -1.9080246168        3.9471112937       -1.9053492389
Pt              -3.8059353548        3.8093567664       -0.0017819959
Pt              -1.9033293386        3.9297872814        1.9005457983
Pt              -0.0049687299       -3.8013157508       -3.8013157508
Pt              -0.0073362268       -1.9324053621       -1.9324053621
Pt               1.9233118529       -3.9329699087       -1.9158259740
Pt               1.9233118529       -1.9158259740       -3.9329699087
Pt               0.0063905018       -4.1220370434       -0.0101223699
Pt              -0.0005581886       -1.9308814871        1.9319932544
Pt               1.9056023587       -3.9345256907        1.9203376785
Pt               1.9244011515       -1.9298476271       -0.0017681067
Pt               0.0074922309       -3.7917470403        3.8322072817
Pt               1.9305842280       -1.9010026394        3.9410743694
Pt               0.0063905018       -0.0101223699       -4.1220370434
Pt              -0.0005581886        1.9319932544       -1.9308814871
Pt               1.9244011515       -0.0017681067       -1.9298476271
Pt               1.9056023587        1.9203376785       -3.9345256907
Pt              -0.0148329334       -0.0169859043       -0.0169859043
Pt              -0.0087547080        1.9132585531        1.9132585531
Pt               1.9220286150       -0.0061520781        1.9208265137
Pt               1.9220286150        1.9208265137       -0.0061520781
Pt               0.0047757605       -0.0043273406        4.1389838834
Pt               1.9085274449        1.9048471048        3.9293264951
Pt               0.0074922309        3.8322072817       -3.7917470403
Pt               1.9305842280        3.9410743694       -1.9010026394
Pt               0.0047757605        4.1389838834       -0.0043273406
Pt               1.9085274449        3.9293264951        1.9048471048
Pt               0.0063701435        3.8010839050        3.8010839050
Pt               3.9394510051       -1.9079697141       -1.9079697141
Pt               3.8067450818       -3.8048690668        0.0100873713
Pt               3.9397793508       -1.9055957898        1.9119163018
Pt               3.8067450818        0.0100873713       -3.8048690668
Pt               3.9397793508        1.9119163018       -1.9055957898
Pt               4.1401201970       -0.0001989043       -0.0001989043
Pt               3.9252910751        1.9079951119        1.9079951119
Pt               3.8121604124       -0.0010994599        3.8152748664
Pt               3.8121604124        3.8152748664       -0.0010994599
H               -5.3187657915       -2.5861087141       -2.5861087141
End final coordinates

     Writing all to output data dir ./out/calc.save/ :
     XML data file, charge density, pseudopotentials, collected wavefunctions

     General routines

     Parallel routines

   This run was terminated on:  19:45:38  18Jan2025

   JOB DONE.