     Program PWSCF v.7.3.1 starts on 22Jan2025 at  7:40:49

     Reading input from espresso.pwi
Warning: card   &CELL ignored
Warning: card      CELL_DOFREE = 'IBRAV' ignored
Warning: card / ignored

     Current dimensions of program PWSCF are:
     Max number of different atomic species (ntypx) = 10
     Max number of k-points (npk) =  40000
     Max angular momentum in pseudopotentials (lmaxx) =  4
     Message from routine iosys:
     restart disabled: needed files not found

     IMPORTANT: XC functional enforced from input :
     Exchange-correlation= RVV10
                           (   1   4  13   4  26   0   0)
     Any further DFT definition will be discarded
     Please, verify this is what you really want

     Atomic positions and unit cell read from directory:
     ./out/calc.save/
     Message from routine qexsd_readschema :
     xml data file ./out/calc.save/data-file-schema.xml not found
     Nothing found: using input atomic positions and unit cell

     gamma-point specific algorithms are used
     Message from routine setup:
     using ibrav=0 with symmetry is DISCOURAGED, use correct ibrav instead

     R & G space division:  proc/nbgrp/npool/nimage =      36
     Subspace diagonalization in iterative solution of the eigenvalue problem:
     one sub-group per band group will be used

     Using Slab Decomposition

     Title:
     calc

     bravais-lattice index     =            0
     lattice parameter (alat)  =      34.0151  a.u.
     unit-cell volume          =   39356.2868 (a.u.)^3
     number of atoms/cell      =           55
     number of atomic types    =            1
     number of electrons       =       880.00
     number of Kohn-Sham states=          528
     kinetic-energy cutoff     =      60.0000  Ry
     charge density cutoff     =     480.0000  Ry
     scf convergence threshold =      1.0E-06
     mixing beta               =       0.2000
     number of iterations used =            8  plain     mixing
     energy convergence thresh.=      1.0E-04
     force convergence thresh. =      1.0E-03
     Exchange-correlation= RVV10
                           (   1   4  13   4  26   0   0)
     nstep                     =        10000

     celldm(1)=  34.015070  celldm(2)=   0.000000  celldm(3)=   0.000000
     celldm(4)=   0.000000  celldm(5)=   0.000000  celldm(6)=   0.000000

     crystal axes: (cart. coord. in units of alat)
               a(1) = (   1.000000   0.000000   0.000000 )
               a(2) = (   0.000000   1.000000   0.000000 )
               a(3) = (   0.000000   0.000000   1.000000 )

     reciprocal axes: (cart. coord. in units 2 pi/alat)
               b(1) = (  1.000000  0.000000  0.000000 )
               b(2) = (  0.000000  1.000000  0.000000 )
               b(3) = (  0.000000  0.000000  1.000000 )

     PseudoPot. # 1 for Pt read from file:
     /home/james/work/espresso/SSSP_1.3.0_PBE_efficiency/pt_pbe_v1.4.uspp.F.UPF
     MD5 check sum: f09d6de1a584b5a045c4fc126da2d0c4
     Pseudo is Ultrasoft + core correction, Zval = 16.0
     Generated by new atomic code, or converted to UPF format
     Using radial grid of  985 points,  6 beta functions with:
                l(1) =   0
                l(2) =   0
                l(3) =   1
                l(4) =   1
                l(5) =   2
                l(6) =   2
     Q(r) pseudized with  8 coefficients,  rinner =    1.300   1.300   1.300
                                                       1.300   1.300

     atomic species   valence    mass     pseudopotential
     Pt               16.00   195.08400     Pt( 1.00)

     Starting magnetic structure
     atomic species   magnetization
     Pt              0.010

     48 Sym. Ops., with inversion, found

                                    s                        frac. trans.

      isym =  1     identity

 cryst.   s( 1) = (     1          0          0      )
                  (     0          1          0      )
                  (     0          0          1      )

 cart.    s( 1) = (  1.0000000  0.0000000  0.0000000 )
                  (  0.0000000  1.0000000  0.0000000 )
                  (  0.0000000  0.0000000  1.0000000 )

      isym =  2     180 deg rotation - cart. axis [0,0,1]

[...]

 cryst.   s( 9) = (     0          0          1      )
                  (     0         -1          0      )
                  (     1          0          0      )

 cart.    s( 9) = (  0.0000000  0.0000000  1.0000000 )
                  (  0.0000000 -1.0000000  0.0000000 )
                  (  1.0000000  0.0000000  0.0000000 )

[...]

 cryst.   s(10) = (     0          0         -1      )
                  (     0         -1          0      )
                  (    -1          0          0      )

 cart.    s(10) = (  0.0000000  0.0000000 -1.0000000 )
                  (  0.0000000 -1.0000000  0.0000000 )
                  ( -1.0000000  0.0000000  0.0000000 )

[...]

      isym = 24     120 deg rotation - cart. axis [-1,-1,1]

[...]

      isym = 25     inversion

[...]

      isym = 26     inv. 180 deg rotation - cart. axis [0,0,1]

[...]

      isym = 48     inv. 120 deg rotation - cart. axis [-1,-1,1]

 cryst.   s(48) = (     0         -1          0      )
                  (     0          0          1      )
                  (     1          0          0      )

 cart.    s(48) = (  0.0000000  0.0000000  1.0000000 )
                  ( -1.0000000  0.0000000  0.0000000 )
                  (  0.0000000  1.0000000  0.0000000 )

   Cartesian axes

     site n.     atom                  positions (alat units)
         1        Pt     tau(   1) = (  -0.2177778  -0.1088889  -0.1088889  )
         2        Pt     tau(   2) = (  -0.1088889  -0.2177778  -0.1088889  )
         3        Pt     tau(   3) = (  -0.1088889  -0.1088889  -0.2177778  )
         4        Pt     tau(   4) = (  -0.2177778  -0.2177778   0.0000000  )
         5        Pt     tau(   5) = (  -0.2177778  -0.1088889   0.1088889  )
         6        Pt     tau(   6) = (  -0.1088889  -0.2177778   0.1088889  )
         7        Pt     tau(   7) = (  -0.1088889  -0.1088889   0.0000000  )
         8        Pt     tau(   8) = (  -0.1088889  -0.1088889   0.2177778  )
         9        Pt     tau(   9) = (  -0.2177778   0.0000000  -0.2177778  )
        10        Pt     tau(  10) = (  -0.2177778   0.1088889  -0.1088889  )
        11        Pt     tau(  11) = (  -0.1088889   0.0000000  -0.1088889  )
        12        Pt     tau(  12) = (  -0.1088889   0.1088889  -0.2177778  )
        13        Pt     tau(  13) = (  -0.2177778   0.0000000   0.0000000  )
        14        Pt     tau(  14) = (  -0.2177778   0.1088889   0.1088889  )
        15        Pt     tau(  15) = (  -0.1088889   0.0000000   0.1088889  )
        16        Pt     tau(  16) = (  -0.1088889   0.1088889   0.0000000  )
        17        Pt     tau(  17) = (  -0.2177778   0.0000000   0.2177778  )
        18        Pt     tau(  18) = (  -0.1088889   0.1088889   0.2177778  )
        19        Pt     tau(  19) = (  -0.1088889   0.2177778  -0.1088889  )
        20        Pt     tau(  20) = (  -0.2177778   0.2177778   0.0000000  )
        21        Pt     tau(  21) = (  -0.1088889   0.2177778   0.1088889  )
        22        Pt     tau(  22) = (   0.0000000  -0.2177778  -0.2177778  )
        23        Pt     tau(  23) = (   0.0000000  -0.1088889  -0.1088889  )
        24        Pt     tau(  24) = (   0.1088889  -0.2177778  -0.1088889  )
        25        Pt     tau(  25) = (   0.1088889  -0.1088889  -0.2177778  )
        26        Pt     tau(  26) = (   0.0000000  -0.2177778   0.0000000  )
        27        Pt     tau(  27) = (   0.0000000  -0.1088889   0.1088889  )
        28        Pt     tau(  28) = (   0.1088889  -0.2177778   0.1088889  )
        29        Pt     tau(  29) = (   0.1088889  -0.1088889   0.0000000  )
        30        Pt     tau(  30) = (   0.0000000  -0.2177778   0.2177778  )
        31        Pt     tau(  31) = (   0.1088889  -0.1088889   0.2177778  )
        32        Pt     tau(  32) = (   0.0000000   0.0000000  -0.2177778  )
        33        Pt     tau(  33) = (   0.0000000   0.1088889  -0.1088889  )
        34        Pt     tau(  34) = (   0.1088889   0.0000000  -0.1088889  )
        35        Pt     tau(  35) = (   0.1088889   0.1088889  -0.2177778  )
        36        Pt     tau(  36) = (   0.0000000   0.0000000   0.0000000  )
        37        Pt     tau(  37) = (   0.0000000   0.1088889   0.1088889  )
        38        Pt     tau(  38) = (   0.1088889   0.0000000   0.1088889  )
        39        Pt     tau(  39) = (   0.1088889   0.1088889   0.0000000  )
        40        Pt     tau(  40) = (   0.0000000   0.0000000   0.2177778  )
        41        Pt     tau(  41) = (   0.1088889   0.1088889   0.2177778  )
        42        Pt     tau(  42) = (   0.0000000   0.2177778  -0.2177778  )
        43        Pt     tau(  43) = (   0.1088889   0.2177778  -0.1088889  )
        44        Pt     tau(  44) = (   0.0000000   0.2177778   0.0000000  )
        45        Pt     tau(  45) = (   0.1088889   0.2177778   0.1088889  )
        46        Pt     tau(  46) = (   0.0000000   0.2177778   0.2177778  )
        47        Pt     tau(  47) = (   0.2177778  -0.1088889  -0.1088889  )
        48        Pt     tau(  48) = (   0.2177778  -0.2177778   0.0000000  )
        49        Pt     tau(  49) = (   0.2177778  -0.1088889   0.1088889  )
        50        Pt     tau(  50) = (   0.2177778   0.0000000  -0.2177778  )
        51        Pt     tau(  51) = (   0.2177778   0.1088889  -0.1088889  )
        52        Pt     tau(  52) = (   0.2177778   0.0000000   0.0000000  )
        53        Pt     tau(  53) = (   0.2177778   0.1088889   0.1088889  )
        54        Pt     tau(  54) = (   0.2177778   0.0000000   0.2177778  )
        55        Pt     tau(  55) = (   0.2177778   0.2177778   0.0000000  )

   Crystallographic axes

     site n.     atom                  positions (cryst. coord.)
         1        Pt     tau(   1) = ( -0.2177778 -0.1088889 -0.1088889  )
         2        Pt     tau(   2) = ( -0.1088889 -0.2177778 -0.1088889  )
         3        Pt     tau(   3) = ( -0.1088889 -0.1088889 -0.2177778  )
         4        Pt     tau(   4) = ( -0.2177778 -0.2177778  0.0000000  )
         5        Pt     tau(   5) = ( -0.2177778 -0.1088889  0.1088889  )
         6        Pt     tau(   6) = ( -0.1088889 -0.2177778  0.1088889  )
         7        Pt     tau(   7) = ( -0.1088889 -0.1088889  0.0000000  )
         8        Pt     tau(   8) = ( -0.1088889 -0.1088889  0.2177778  )
         9        Pt     tau(   9) = ( -0.2177778  0.0000000 -0.2177778  )
        10        Pt     tau(  10) = ( -0.2177778  0.1088889 -0.1088889  )
        11        Pt     tau(  11) = ( -0.1088889  0.0000000 -0.1088889  )
        12        Pt     tau(  12) = ( -0.1088889  0.1088889 -0.2177778  )
        13        Pt     tau(  13) = ( -0.2177778  0.0000000  0.0000000  )
        14        Pt     tau(  14) = ( -0.2177778  0.1088889  0.1088889  )
        15        Pt     tau(  15) = ( -0.1088889  0.0000000  0.1088889  )
        16        Pt     tau(  16) = ( -0.1088889  0.1088889  0.0000000  )
[...]
     atom    7 type  1   force =    -0.00465987   -0.00465990   -0.00000002
     atom    8 type  1   force =     0.00862255    0.00862254   -0.02559351
     atom    9 type  1   force =     0.01272192   -0.00000000    0.01272189
     atom   10 type  1   force =     0.02559352   -0.00862258    0.00862255
     atom   11 type  1   force =    -0.00465987   -0.00000002   -0.00465985
     atom   12 type  1   force =     0.00862257   -0.00862254    0.02559352
     atom   13 type  1   force =     0.03051731   -0.00000002    0.00000001
     atom   14 type  1   force =     0.02559344   -0.00862254   -0.00862253
     atom   15 type  1   force =    -0.00465988    0.00000000    0.00465987
     atom   16 type  1   force =    -0.00465986    0.00465986    0.00000001
     atom   17 type  1   force =     0.01272187   -0.00000001   -0.01272186
     atom   18 type  1   force =     0.00862253   -0.00862251   -0.02559337
     atom   19 type  1   force =     0.00862257   -0.02559349    0.00862255
     atom   20 type  1   force =     0.01272190   -0.01272193   -0.00000002
     atom   21 type  1   force =     0.00862253   -0.02559339   -0.00862251
     atom   22 type  1   force =     0.00000002    0.01272195    0.01272192
     atom   23 type  1   force =    -0.00000001   -0.00465991   -0.00465985
     atom   24 type  1   force =    -0.00862255    0.02559346    0.00862258
     atom   25 type  1   force =    -0.00862254    0.00862258    0.02559353
     atom   26 type  1   force =    -0.00000002    0.03051730   -0.00000002
     atom   27 type  1   force =     0.00000000   -0.00465988    0.00465985
     atom   28 type  1   force =    -0.00862256    0.02559348   -0.00862258
     atom   29 type  1   force =     0.00465984   -0.00465988   -0.00000001
     atom   30 type  1   force =     0.00000001    0.01272206   -0.01272200
     atom   31 type  1   force =    -0.00862257    0.00862259   -0.02559359
     atom   32 type  1   force =    -0.00000000   -0.00000000    0.03051728
     atom   33 type  1   force =     0.00000003    0.00465987   -0.00465985
     atom   34 type  1   force =     0.00465988    0.00000001   -0.00465987
     atom   35 type  1   force =    -0.00862256   -0.00862257    0.02559346
     atom   36 type  1   force =    -0.00000000   -0.00000002    0.00000000
     atom   37 type  1   force =     0.00000000    0.00465988    0.00465987
     atom   38 type  1   force =     0.00465985    0.00000000    0.00465987
     atom   39 type  1   force =     0.00465987    0.00465989   -0.00000001
     atom   40 type  1   force =    -0.00000000    0.00000000   -0.03051729
     atom   41 type  1   force =    -0.00862257   -0.00862257   -0.02559350
     atom   42 type  1   force =     0.00000001   -0.01272189    0.01272190
     atom   43 type  1   force =    -0.00862254   -0.02559343    0.00862255
     atom   44 type  1   force =     0.00000001   -0.03051731    0.00000002
     atom   45 type  1   force =    -0.00862255   -0.02559342   -0.00862255
     atom   46 type  1   force =     0.00000001   -0.01272168   -0.01272166
     atom   47 type  1   force =    -0.02559352    0.00862257    0.00862257
     atom   48 type  1   force =    -0.01272200    0.01272202    0.00000001
     atom   49 type  1   force =    -0.02559360    0.00862255   -0.00862259
     atom   50 type  1   force =    -0.01272191   -0.00000002    0.01272192
     atom   51 type  1   force =    -0.02559345   -0.00862257    0.00862253
     atom   52 type  1   force =    -0.03051726    0.00000000   -0.00000001
     atom   53 type  1   force =    -0.02559357   -0.00862257   -0.00862257
     atom   54 type  1   force =    -0.01272220   -0.00000001   -0.01272222
     atom   55 type  1   force =    -0.01272191   -0.01272198   -0.00000000
     The Hubbard contrib.    to forces
     atom    1 type  1   force =     0.00000000    0.00000000    0.00000000
     atom    2 type  1   force =     0.00000000    0.00000000    0.00000000
     atom    3 type  1   force =     0.00000000    0.00000000    0.00000000
     atom    4 type  1   force =     0.00000000    0.00000000    0.00000000
     atom    5 type  1   force =     0.00000000    0.00000000    0.00000000
     atom    6 type  1   force =     0.00000000    0.00000000    0.00000000
     atom    7 type  1   force =     0.00000000    0.00000000    0.00000000
     atom    8 type  1   force =     0.00000000    0.00000000    0.00000000
     atom    9 type  1   force =     0.00000000    0.00000000    0.00000000
     atom   10 type  1   force =     0.00000000    0.00000000    0.00000000
     atom   11 type  1   force =     0.00000000    0.00000000    0.00000000
     atom   12 type  1   force =     0.00000000    0.00000000    0.00000000
     atom   13 type  1   force =     0.00000000    0.00000000    0.00000000
     atom   14 type  1   force =     0.00000000    0.00000000    0.00000000
     atom   15 type  1   force =     0.00000000    0.00000000    0.00000000
     atom   16 type  1   force =     0.00000000    0.00000000    0.00000000
     atom   17 type  1   force =     0.00000000    0.00000000    0.00000000
     atom   18 type  1   force =     0.00000000    0.00000000    0.00000000
     atom   19 type  1   force =     0.00000000    0.00000000    0.00000000
     atom   20 type  1   force =     0.00000000    0.00000000    0.00000000
     atom   21 type  1   force =     0.00000000    0.00000000    0.00000000
     atom   22 type  1   force =     0.00000000    0.00000000    0.00000000
     atom   23 type  1   force =     0.00000000    0.00000000    0.00000000
     atom   24 type  1   force =     0.00000000    0.00000000    0.00000000
     atom   25 type  1   force =     0.00000000    0.00000000    0.00000000
     atom   26 type  1   force =     0.00000000    0.00000000    0.00000000
     atom   27 type  1   force =     0.00000000    0.00000000    0.00000000
     atom   28 type  1   force =     0.00000000    0.00000000    0.00000000
     atom   29 type  1   force =     0.00000000    0.00000000    0.00000000
     atom   30 type  1   force =     0.00000000    0.00000000    0.00000000
     atom   31 type  1   force =     0.00000000    0.00000000    0.00000000
     atom   32 type  1   force =     0.00000000    0.00000000    0.00000000
     atom   33 type  1   force =     0.00000000    0.00000000    0.00000000
     atom   34 type  1   force =     0.00000000    0.00000000    0.00000000
     atom   35 type  1   force =     0.00000000    0.00000000    0.00000000
     atom   36 type  1   force =     0.00000000    0.00000000    0.00000000
     atom   37 type  1   force =     0.00000000    0.00000000    0.00000000
     atom   38 type  1   force =     0.00000000    0.00000000    0.00000000
     atom   39 type  1   force =     0.00000000    0.00000000    0.00000000
     atom   40 type  1   force =     0.00000000    0.00000000    0.00000000
     atom   41 type  1   force =     0.00000000    0.00000000    0.00000000
     atom   42 type  1   force =     0.00000000    0.00000000    0.00000000
     atom   43 type  1   force =     0.00000000    0.00000000    0.00000000
     atom   44 type  1   force =     0.00000000    0.00000000    0.00000000
     atom   45 type  1   force =     0.00000000    0.00000000    0.00000000
     atom   46 type  1   force =     0.00000000    0.00000000    0.00000000
     atom   47 type  1   force =     0.00000000    0.00000000    0.00000000
     atom   48 type  1   force =     0.00000000    0.00000000    0.00000000
     atom   49 type  1   force =     0.00000000    0.00000000    0.00000000
     atom   50 type  1   force =     0.00000000    0.00000000    0.00000000
     atom   51 type  1   force =     0.00000000    0.00000000    0.00000000
     atom   52 type  1   force =     0.00000000    0.00000000    0.00000000
     atom   53 type  1   force =     0.00000000    0.00000000    0.00000000
     atom   54 type  1   force =     0.00000000    0.00000000    0.00000000
     atom   55 type  1   force =     0.00000000    0.00000000    0.00000000
     The SCF correction term to forces
     atom    1 type  1   force =     0.00002217   -0.00001020    0.00002660
     atom    2 type  1   force =    -0.00000924    0.00001509    0.00002874
     atom    3 type  1   force =    -0.00000736   -0.00000572    0.00003476
     atom    4 type  1   force =     0.00002190    0.00001587   -0.00000726
     atom    5 type  1   force =     0.00001669   -0.00000136   -0.00002883
     atom    6 type  1   force =    -0.00001631    0.00001048   -0.00003941
     atom    7 type  1   force =    -0.00001001   -0.00000258   -0.00001057
     atom    8 type  1   force =    -0.00001802    0.00001015   -0.00002713
     atom    9 type  1   force =     0.00000737   -0.00001358    0.00002367
     atom   10 type  1   force =     0.00001844   -0.00001475    0.00002091
     atom   11 type  1   force =     0.00000704   -0.00001162    0.00003593
     atom   12 type  1   force =     0.00000700   -0.00000531    0.00002447
     atom   13 type  1   force =     0.00003011   -0.00001531    0.00000341
     atom   14 type  1   force =     0.00002922   -0.00000649   -0.00000606
     atom   15 type  1   force =    -0.00000142    0.00001405   -0.00002839
     atom   16 type  1   force =     0.00002281   -0.00001094    0.00001511
     atom   17 type  1   force =     0.00001239    0.00000769   -0.00002322
     atom   18 type  1   force =     0.00000646    0.00001222   -0.00002852
     atom   19 type  1   force =     0.00001780   -0.00001370    0.00002529
     atom   20 type  1   force =     0.00002489   -0.00001388    0.00001403
     atom   21 type  1   force =     0.00002085   -0.00002074   -0.00000258
     atom   22 type  1   force =    -0.00001983    0.00000267    0.00002656
     atom   23 type  1   force =    -0.00003277    0.00000367    0.00002697
     atom   24 type  1   force =    -0.00003449   -0.00000099    0.00000642
     atom   25 type  1   force =    -0.00001739    0.00000311    0.00001287
     atom   26 type  1   force =    -0.00003763    0.00001193   -0.00001320
     atom   27 type  1   force =    -0.00004423    0.00000854   -0.00004115
     atom   28 type  1   force =    -0.00003214   -0.00001424   -0.00002184
     atom   29 type  1   force =    -0.00005460    0.00000502   -0.00002202
     atom   30 type  1   force =    -0.00002426   -0.00000525   -0.00002037
     atom   31 type  1   force =    -0.00002751   -0.00000288   -0.00000128
     atom   32 type  1   force =    -0.00000742    0.00000250    0.00002974
     atom   33 type  1   force =    -0.00000415   -0.00000547    0.00003451
     atom   34 type  1   force =    -0.00004081    0.00001699    0.00001116
     atom   35 type  1   force =    -0.00001287    0.00000477    0.00002088
     atom   36 type  1   force =    -0.00003312    0.00001721   -0.00000932
     atom   37 type  1   force =    -0.00002901    0.00001767   -0.00002072
     atom   38 type  1   force =    -0.00005945    0.00002924   -0.00003075
     atom   39 type  1   force =    -0.00005488    0.00001407   -0.00000975
     atom   40 type  1   force =    -0.00003327    0.00002920   -0.00002191
     atom   41 type  1   force =    -0.00004484    0.00003243   -0.00001362
     atom   42 type  1   force =     0.00000356   -0.00000551    0.00002276
     atom   43 type  1   force =    -0.00002348   -0.00001033    0.00001590
     atom   44 type  1   force =    -0.00000648   -0.00002511    0.00001353
     atom   45 type  1   force =    -0.00004299   -0.00000139   -0.00000964
     atom   46 type  1   force =    -0.00001686   -0.00000612   -0.00002515
     atom   47 type  1   force =    -0.00001722    0.00000165   -0.00001126
     atom   48 type  1   force =    -0.00001753   -0.00001415   -0.00001168
     atom   49 type  1   force =    -0.00000777   -0.00001135   -0.00001175
     atom   50 type  1   force =    -0.00001243    0.00000977    0.00000175
     atom   51 type  1   force =    -0.00002627    0.00001144   -0.00000404
     atom   52 type  1   force =    -0.00002183    0.00001574   -0.00002242
     atom   53 type  1   force =    -0.00002574    0.00002983   -0.00001362
     atom   54 type  1   force =    -0.00000924    0.00001503    0.00000689
     atom   55 type  1   force =    -0.00003025    0.00000651   -0.00000639

     Total force =     0.005171     Total SCF correction =     0.000270
     Energy error            =      9.4E-05 Ry
     Gradient error          =      8.9E-04 Ry/Bohr

     bfgs converged in  14 scf cycles and  13 bfgs steps
     (criteria: energy <  1.0E-04 Ry, force <  1.0E-03 Ry/Bohr)

     End of BFGS Geometry Optimization

     Final energy             =  -11590.3176227046 Ry

     File ./out/calc.bfgs deleted, as requested
Begin final coordinates

ATOMIC_POSITIONS (angstrom)
Pt              -3.9341628215       -1.9102532511       -1.9102532511
Pt              -1.9102532511       -3.9341628215       -1.9102532511
Pt              -1.9102532511       -1.9102532511       -3.9341628215
Pt              -3.8077109386       -3.8077109386       -0.0000000000
Pt              -3.9341628215       -1.9102532511        1.9102532511
Pt              -1.9102532511       -3.9341628215        1.9102532511
Pt              -1.9281447337       -1.9281447337       -0.0000000000
Pt              -1.9102532511       -1.9102532511        3.9341628215
Pt              -3.8077109386       -0.0000000000       -3.8077109386
Pt              -3.9341628215        1.9102532511       -1.9102532511
Pt              -1.9281447337        0.0000000000       -1.9281447337
Pt              -1.9102532511        1.9102532511       -3.9341628215
Pt              -4.1378984993       -0.0000000000       -0.0000000000
Pt              -3.9341628215        1.9102532511        1.9102532511
Pt              -1.9281447337       -0.0000000000        1.9281447337
Pt              -1.9281447337        1.9281447337       -0.0000000000
Pt              -3.8077109386        0.0000000000        3.8077109386
Pt              -1.9102532511        1.9102532511        3.9341628215
Pt              -1.9102532511        3.9341628215       -1.9102532511
Pt              -3.8077109386        3.8077109386        0.0000000000
Pt              -1.9102532511        3.9341628215        1.9102532511
Pt              -0.0000000000       -3.8077109386       -3.8077109386
Pt              -0.0000000000       -1.9281447337       -1.9281447337
Pt               1.9102532511       -3.9341628215       -1.9102532511
Pt               1.9102532511       -1.9102532511       -3.9341628215
Pt              -0.0000000000       -4.1378984993        0.0000000000
Pt               0.0000000000       -1.9281447337        1.9281447337
Pt               1.9102532511       -3.9341628215        1.9102532511
Pt               1.9281447337       -1.9281447337       -0.0000000000
Pt              -0.0000000000       -3.8077109386        3.8077109386
Pt               1.9102532511       -1.9102532511        3.9341628215
Pt               0.0000000000       -0.0000000000       -4.1378984993
Pt               0.0000000000        1.9281447337       -1.9281447337
Pt               1.9281447337        0.0000000000       -1.9281447337
Pt               1.9102532511        1.9102532511       -3.9341628215
Pt               0.0000000000       -0.0000000000       -0.0000000000
Pt               0.0000000000        1.9281447337        1.9281447337
Pt               1.9281447337       -0.0000000000        1.9281447337
Pt               1.9281447337        1.9281447337       -0.0000000000
Pt              -0.0000000000       -0.0000000000        4.1378984993
Pt               1.9102532511        1.9102532511        3.9341628215
Pt              -0.0000000000        3.8077109386       -3.8077109386
Pt               1.9102532511        3.9341628215       -1.9102532511
Pt               0.0000000000        4.1378984993        0.0000000000
Pt               1.9102532511        3.9341628215        1.9102532511
Pt              -0.0000000000        3.8077109386        3.8077109386
Pt               3.9341628215       -1.9102532511       -1.9102532511
Pt               3.8077109386       -3.8077109386        0.0000000000
Pt               3.9341628215       -1.9102532511        1.9102532511
Pt               3.8077109386        0.0000000000       -3.8077109386
Pt               3.9341628215        1.9102532511       -1.9102532511
Pt               4.1378984993       -0.0000000000       -0.0000000000
Pt               3.9341628215        1.9102532511        1.9102532511
Pt               3.8077109386        0.0000000000        3.8077109386
Pt               3.8077109386        3.8077109386        0.0000000000
End final coordinates

     Writing all to output data dir ./out/calc.save/ :
     XML data file, charge density, pseudopotentials, collected wavefunctions

     General routines

     Parallel routines

   This run was terminated on:  18:52:33  23Jan2025

   JOB DONE.