     Program PWSCF v.7.3.1 starts on 24Jul2025 at 20:21: 9

     Reading input from espresso.pwi
Warning: card &CELL ignored
Warning: card  CELL_DOFREE = 'IBRAV', ignored
Warning: card / ignored

     Current dimensions of program PWSCF are:
     Max number of different atomic species (ntypx) = 10
     Max number of k-points (npk) =  40000
     Max angular momentum in pseudopotentials (lmaxx) =  4
     Message from routine iosys:
     restart disabled: needed files not found

     IMPORTANT: XC functional enforced from input :
     Exchange-correlation= RVV10
                           (   1   4  13   4  26   0   0)
     Any further DFT definition will be discarded
     Please, verify this is what you really want

     Atomic positions and unit cell read from directory:
     ./out/calc.save/
     Message from routine qexsd_readschema :
     xml data file ./out/calc.save/data-file-schema.xml not found
     Nothing found: using input atomic positions and unit cell

     gamma-point specific algorithms are used

     R & G space division:  proc/nbgrp/npool/nimage =      36
     Subspace diagonalization in iterative solution of the eigenvalue problem:
     one sub-group per band group will be used

     Using Slab Decomposition

     Title:
     Pt55 DRC DFT-PBE

     bravais-lattice index     =            0
     lattice parameter (alat)  =      37.7945  a.u.
     unit-cell volume          =   53986.6760 (a.u.)^3
     number of atoms/cell      =           56
     number of atomic types    =            2
     number of electrons       =       881.00
     number of Kohn-Sham states=          529
     kinetic-energy cutoff     =      60.0000  Ry
     charge density cutoff     =     480.0000  Ry
     scf convergence threshold =      1.0E-06
     mixing beta               =       0.2000
     number of iterations used =            8  plain     mixing
     energy convergence thresh.=      1.0E-04
     force convergence thresh. =      1.0E-03
     Exchange-correlation= RVV10
                           (   1   4  13   4  26   0   0)
     nstep                     =        10000

     celldm(1)=  37.794522  celldm(2)=   0.000000  celldm(3)=   0.000000
     celldm(4)=   0.000000  celldm(5)=   0.000000  celldm(6)=   0.000000

     crystal axes: (cart. coord. in units of alat)
               a(1) = (   1.000000   0.000000   0.000000 )
               a(2) = (   0.000000   1.000000   0.000000 )
               a(3) = (   0.000000   0.000000   1.000000 )

     reciprocal axes: (cart. coord. in units 2 pi/alat)
               b(1) = (  1.000000  0.000000  0.000000 )
               b(2) = (  0.000000  1.000000  0.000000 )
               b(3) = (  0.000000  0.000000  1.000000 )

     PseudoPot. # 1 for Pt read from file:
     /home/james/work/espresso/SSSP_1.3.0_PBE_efficiency/pt_pbe_v1.4.uspp.F.UPF
     MD5 check sum: f09d6de1a584b5a045c4fc126da2d0c4
     Pseudo is Ultrasoft + core correction, Zval = 16.0
     Generated by new atomic code, or converted to UPF format
     Using radial grid of  985 points,  6 beta functions with:
                l(1) =   0
                l(2) =   0
                l(3) =   1
                l(4) =   1
                l(5) =   2
                l(6) =   2
     Q(r) pseudized with  8 coefficients,  rinner =    1.300   1.300   1.300
                                                       1.300   1.300

     PseudoPot. # 2 for H  read from file:
     /home/james/work/espresso/SSSP_1.3.0_PBE_efficiency/H.pbe-rrkjus_psl.1.0.0.UPF
     MD5 check sum: f52b6d4d1c606e5624b1dc7b2218f220
     Pseudo is Ultrasoft, Zval =  1.0
     Generated using "atomic" code by A. Dal Corso  v.5.1
     Using radial grid of  929 points,  2 beta functions with:
                l(1) =   0
                l(2) =   0
     Q(r) pseudized with 0 coefficients

     atomic species   valence    mass     pseudopotential
     Pt               16.00   195.08400     Pt( 1.00)
     H                 1.00     1.00800     H ( 1.00)

     Starting magnetic structure
     atomic species   magnetization
     Pt              0.010
     H               0.000

     No symmetry found

                                    s                        frac. trans.

      isym =  1     identity

 cryst.   s( 1) = (     1          0          0      )
                  (     0          1          0      )
                  (     0          0          1      )

 cart.    s( 1) = (  1.0000000  0.0000000  0.0000000 )
                  (  0.0000000  1.0000000  0.0000000 )
                  (  0.0000000  0.0000000  1.0000000 )

   Cartesian axes

     site n.     atom                  positions (alat units)
         1        Pt     tau(   1) = (  -0.1184692  -0.1289811  -0.2146595  )
         2        Pt     tau(   2) = (   0.0879732  -0.1905563  -0.0473935  )
         3        Pt     tau(   3) = (  -0.0407954  -0.2088642  -0.0136076  )
         4        Pt     tau(   4) = (  -0.0534911  -0.0140564  -0.1170277  )
         5        Pt     tau(   5) = (  -0.1338863   0.0930485  -0.1450428  )
         6        Pt     tau(   6) = (  -0.0216487   0.0742489  -0.2224670  )
         7        Pt     tau(   7) = (  -0.1228422  -0.0003186  -0.2473079  )
         8        Pt     tau(   8) = (  -0.2193709   0.0091502   0.0852671  )
         9        Pt     tau(   9) = (   0.0332487  -0.0443171   0.0797488  )
        10        Pt     tau(  10) = (   0.0490643   0.0649223  -0.0801249  )
        11        Pt     tau(  11) = (   0.1286964   0.0142868   0.0087880  )
        12        Pt     tau(  12) = (   0.0516947  -0.1831859   0.0823583  )
        13        Pt     tau(  13) = (  -0.1824139  -0.0401985  -0.1364734  )
        14        Pt     tau(  14) = (  -0.1203394  -0.1322049   0.2271575  )
        15        Pt     tau(  15) = (  -0.1987900  -0.1171753   0.1194564  )
        16        Pt     tau(  16) = (   0.2439832   0.0269829  -0.0478417  )
        17        Pt     tau(  17) = (   0.1291423   0.1929666   0.0441357  )
        18        Pt     tau(  18) = (   0.2135598  -0.0299727  -0.1637702  )
        19        Pt     tau(  19) = (  -0.0893648   0.0523185  -0.0126911  )
        20        Pt     tau(  20) = (  -0.2080250   0.1375869   0.0577217  )
        21        Pt     tau(  21) = (  -0.1409462  -0.1648513  -0.0948211  )
        22        Pt     tau(  22) = (   0.0306188   0.2158309   0.1283915  )
        23        Pt     tau(  23) = (  -0.0038981  -0.0644102  -0.2279053  )
        24        Pt     tau(  24) = (   0.2243978  -0.0502054   0.0665406  )
        25        Pt     tau(  25) = (   0.1820945   0.0964271  -0.1408716  )
        26        Pt     tau(  26) = (   0.2264479   0.1612750  -0.0350756  )
        27        Pt     tau(  27) = (  -0.0229513   0.1709344  -0.1259021  )
        28        Pt     tau(  28) = (   0.0207124   0.0847292   0.0494645  )
        29        Pt     tau(  29) = (  -0.0882590  -0.0022267   0.1018400  )
        30        Pt     tau(  30) = (   0.1907775   0.0152478   0.1772775  )
        31        Pt     tau(  31) = (   0.1789948  -0.1737259   0.0478570  )
        32        Pt     tau(  32) = (  -0.2068087  -0.0814042  -0.0116031  )
        33        Pt     tau(  33) = (  -0.0671348  -0.0085571   0.2287301  )
        34        Pt     tau(  34) = (  -0.1498055   0.0904163   0.1729490  )
        35        Pt     tau(  35) = (  -0.0719561  -0.0785236  -0.0018603  )
        36        Pt     tau(  36) = (   0.1074455  -0.1080978  -0.1653069  )
        37        Pt     tau(  37) = (  -0.2143159   0.0476112  -0.0425252  )
        38        Pt     tau(  38) = (   0.0970606   0.0186090  -0.2042751  )
        39        Pt     tau(  39) = (   0.2152744   0.0880652   0.0720890  )
        40        Pt     tau(  40) = (  -0.1702640  -0.2033339   0.0251930  )
        41        Pt     tau(  41) = (   0.1333264  -0.1021657   0.1506856  )
        42        Pt     tau(  42) = (  -0.0758684  -0.1667120   0.1080652  )
        43        Pt     tau(  43) = (   0.0079707  -0.1220948   0.1959394  )
        44        Pt     tau(  44) = (   0.1035756   0.1872857  -0.0840180  )
        45        Pt     tau(  45) = (   0.0017203   0.2074397  -0.0000028  )
        46        Pt     tau(  46) = (  -0.1214752   0.1735622  -0.0383396  )
        47        Pt     tau(  47) = (   0.0626453  -0.0003444   0.2036670  )
        48        Pt     tau(  48) = (  -0.0911473   0.1789724   0.0937393  )
        49        Pt     tau(  49) = (   0.0820102   0.1511787  -0.2092932  )
        50        Pt     tau(  50) = (  -0.0177604   0.1051450   0.1826634  )
        51        Pt     tau(  51) = (  -0.0105208  -0.1612931  -0.1336594  )
        52        Pt     tau(  52) = (   0.1953231  -0.1018990  -0.0580435  )
        53        Pt     tau(  53) = (   0.0533890  -0.0672335  -0.0550032  )
        54        Pt     tau(  54) = (   0.1107939   0.1151121   0.1533706  )
        55        Pt     tau(  55) = (  -0.1993928  -0.0264440   0.2138168  )
        56        H      tau(  56) = (  -0.1513815  -0.1027307  -0.2878236  )

   Crystallographic axes

     site n.     atom                  positions (cryst. coord.)
         1        Pt     tau(   1) = ( -0.1184692 -0.1289811 -0.2146595  )
         2        Pt     tau(   2) = (  0.0879732 -0.1905563 -0.0473935  )
         3        Pt     tau(   3) = ( -0.0407954 -0.2088642 -0.0136076  )
         4        Pt     tau(   4) = ( -0.0534911 -0.0140564 -0.1170277  )
         5        Pt     tau(   5) = ( -0.1338863  0.0930485 -0.1450428  )
         6        Pt     tau(   6) = ( -0.0216487  0.0742489 -0.2224670  )
         7        Pt     tau(   7) = ( -0.1228422 -0.0003186 -0.2473079  )
         8        Pt     tau(   8) = ( -0.2193709  0.0091502  0.0852671  )
         9        Pt     tau(   9) = (  0.0332487 -0.0443171  0.0797488  )
        10        Pt     tau(  10) = (  0.0490643  0.0649223 -0.0801249  )
        11        Pt     tau(  11) = (  0.1286964  0.0142868  0.0087880  )
        12        Pt     tau(  12) = (  0.0516947 -0.1831859  0.0823583  )
        13        Pt     tau(  13) = ( -0.1824139 -0.0401985 -0.1364734  )
        14        Pt     tau(  14) = ( -0.1203394 -0.1322049  0.2271575  )
        15        Pt     tau(  15) = ( -0.1987900 -0.1171753  0.1194564  )
        16        Pt     tau(  16) = (  0.2439832  0.0269829 -0.0478417  )
        17        Pt     tau(  17) = (  0.1291423  0.1929666  0.0441357  )
        18        Pt     tau(  18) = (  0.2135598 -0.0299727 -0.1637702  )
        19        Pt     tau(  19) = ( -0.0893648  0.0523185 -0.0126911  )
        20        Pt     tau(  20) = ( -0.2080250  0.1375869  0.0577217  )
        21        Pt     tau(  21) = ( -0.1409462 -0.1648513 -0.0948211  )
        22        Pt     tau(  22) = (  0.0306188  0.2158309  0.1283915  )
        23        Pt     tau(  23) = ( -0.0038981 -0.0644102 -0.2279053  )
        24        Pt     tau(  24) = (  0.2243978 -0.0502054  0.0665406  )
        25        Pt     tau(  25) = (  0.1820945  0.0964271 -0.1408716  )
        26        Pt     tau(  26) = (  0.2264479  0.1612750 -0.0350756  )
        27        Pt     tau(  27) = ( -0.0229513  0.1709344 -0.1259021  )
        28        Pt     tau(  28) = (  0.0207124  0.0847292  0.0494645  )
[...]
     atom   11 type  1   force =     0.01158112   -0.00279293    0.00060866
     atom   12 type  1   force =    -0.00041819    0.01928472   -0.00795425
     atom   13 type  1   force =     0.01876975   -0.00040269    0.00114194
     atom   14 type  1   force =     0.00545009    0.00883539   -0.01539614
     atom   15 type  1   force =     0.02242777    0.01263468   -0.00163618
     atom   16 type  1   force =    -0.02375925    0.00151996    0.00167121
     atom   17 type  1   force =    -0.00710462   -0.02236204   -0.00602689
     atom   18 type  1   force =    -0.01233288    0.00571184    0.01091780
     atom   19 type  1   force =    -0.01143224    0.00755859    0.00129057
     atom   20 type  1   force =     0.00965611   -0.00795545    0.00189489
     atom   21 type  1   force =     0.01198775    0.01862943    0.01083950
     atom   22 type  1   force =    -0.00224877   -0.01539216   -0.00806893
     atom   23 type  1   force =    -0.00934844    0.00831864    0.01683104
     atom   24 type  1   force =    -0.02294591    0.00630116   -0.00376200
     atom   25 type  1   force =    -0.02189089   -0.01344281    0.02081160
     atom   26 type  1   force =    -0.01168934   -0.01255193   -0.00262695
     atom   27 type  1   force =     0.00654726   -0.01660190    0.00653063
     atom   28 type  1   force =     0.00085752    0.00934636    0.00559872
     atom   29 type  1   force =     0.00097179    0.00630040   -0.00068352
     atom   30 type  1   force =    -0.01018608   -0.00164673   -0.01027426
     atom   31 type  1   force =    -0.00998541    0.01277203   -0.00241183
     atom   32 type  1   force =     0.01569944    0.00094986    0.00395131
     atom   33 type  1   force =    -0.00447302   -0.00327891   -0.02253956
     atom   34 type  1   force =     0.01229335   -0.01773290   -0.02060209
     atom   35 type  1   force =     0.00024062   -0.00483703   -0.00206281
     atom   36 type  1   force =    -0.00771915    0.01401245    0.01641649
     atom   37 type  1   force =     0.01965887   -0.00444878    0.01036160
     atom   38 type  1   force =    -0.00369804    0.00353426    0.01582496
     atom   39 type  1   force =    -0.01731172   -0.00812457   -0.00803968
     atom   40 type  1   force =     0.01227787    0.01461166   -0.00147112
     atom   41 type  1   force =    -0.01163614    0.01335255   -0.02280258
     atom   42 type  1   force =    -0.00343472    0.01868313    0.00066177
     atom   43 type  1   force =    -0.00675417    0.01379304   -0.01588494
     atom   44 type  1   force =    -0.00406543   -0.01935545    0.00581293
     atom   45 type  1   force =     0.00094823   -0.01976757    0.00429417
     atom   46 type  1   force =     0.01176575   -0.01977913    0.00745777
     atom   47 type  1   force =    -0.00168018   -0.00025835   -0.01973586
     atom   48 type  1   force =     0.00635452   -0.02117126   -0.00900265
     atom   49 type  1   force =    -0.00145049   -0.00929069    0.01316720
     atom   50 type  1   force =     0.00060522   -0.00806215   -0.01845187
     atom   51 type  1   force =    -0.00617567    0.01771849    0.00858121
     atom   52 type  1   force =    -0.01625054    0.01220412    0.00581249
     atom   53 type  1   force =     0.00450604   -0.01596091   -0.01288245
     atom   54 type  1   force =    -0.00795937   -0.01228517   -0.01776971
     atom   55 type  1   force =     0.01591392   -0.00183724   -0.01122752
     atom   56 type  2   force =     0.00000000    0.00000000    0.00000000
     The Hubbard contrib.    to forces
     atom    1 type  1   force =     0.00000000    0.00000000    0.00000000
     atom    2 type  1   force =     0.00000000    0.00000000    0.00000000
     atom    3 type  1   force =     0.00000000    0.00000000    0.00000000
     atom    4 type  1   force =     0.00000000    0.00000000    0.00000000
     atom    5 type  1   force =     0.00000000    0.00000000    0.00000000
     atom    6 type  1   force =     0.00000000    0.00000000    0.00000000
     atom    7 type  1   force =     0.00000000    0.00000000    0.00000000
     atom    8 type  1   force =     0.00000000    0.00000000    0.00000000
     atom    9 type  1   force =     0.00000000    0.00000000    0.00000000
     atom   10 type  1   force =     0.00000000    0.00000000    0.00000000
     atom   11 type  1   force =     0.00000000    0.00000000    0.00000000
     atom   12 type  1   force =     0.00000000    0.00000000    0.00000000
     atom   13 type  1   force =     0.00000000    0.00000000    0.00000000
     atom   14 type  1   force =     0.00000000    0.00000000    0.00000000
     atom   15 type  1   force =     0.00000000    0.00000000    0.00000000
     atom   16 type  1   force =     0.00000000    0.00000000    0.00000000
     atom   17 type  1   force =     0.00000000    0.00000000    0.00000000
     atom   18 type  1   force =     0.00000000    0.00000000    0.00000000
     atom   19 type  1   force =     0.00000000    0.00000000    0.00000000
     atom   20 type  1   force =     0.00000000    0.00000000    0.00000000
     atom   21 type  1   force =     0.00000000    0.00000000    0.00000000
     atom   22 type  1   force =     0.00000000    0.00000000    0.00000000
     atom   23 type  1   force =     0.00000000    0.00000000    0.00000000
     atom   24 type  1   force =     0.00000000    0.00000000    0.00000000
     atom   25 type  1   force =     0.00000000    0.00000000    0.00000000
     atom   26 type  1   force =     0.00000000    0.00000000    0.00000000
     atom   27 type  1   force =     0.00000000    0.00000000    0.00000000
     atom   28 type  1   force =     0.00000000    0.00000000    0.00000000
     atom   29 type  1   force =     0.00000000    0.00000000    0.00000000
     atom   30 type  1   force =     0.00000000    0.00000000    0.00000000
     atom   31 type  1   force =     0.00000000    0.00000000    0.00000000
     atom   32 type  1   force =     0.00000000    0.00000000    0.00000000
     atom   33 type  1   force =     0.00000000    0.00000000    0.00000000
     atom   34 type  1   force =     0.00000000    0.00000000    0.00000000
     atom   35 type  1   force =     0.00000000    0.00000000    0.00000000
     atom   36 type  1   force =     0.00000000    0.00000000    0.00000000
     atom   37 type  1   force =     0.00000000    0.00000000    0.00000000
     atom   38 type  1   force =     0.00000000    0.00000000    0.00000000
     atom   39 type  1   force =     0.00000000    0.00000000    0.00000000
     atom   40 type  1   force =     0.00000000    0.00000000    0.00000000
     atom   41 type  1   force =     0.00000000    0.00000000    0.00000000
     atom   42 type  1   force =     0.00000000    0.00000000    0.00000000
     atom   43 type  1   force =     0.00000000    0.00000000    0.00000000
     atom   44 type  1   force =     0.00000000    0.00000000    0.00000000
     atom   45 type  1   force =     0.00000000    0.00000000    0.00000000
     atom   46 type  1   force =     0.00000000    0.00000000    0.00000000
     atom   47 type  1   force =     0.00000000    0.00000000    0.00000000
     atom   48 type  1   force =     0.00000000    0.00000000    0.00000000
     atom   49 type  1   force =     0.00000000    0.00000000    0.00000000
     atom   50 type  1   force =     0.00000000    0.00000000    0.00000000
     atom   51 type  1   force =     0.00000000    0.00000000    0.00000000
     atom   52 type  1   force =     0.00000000    0.00000000    0.00000000
     atom   53 type  1   force =     0.00000000    0.00000000    0.00000000
     atom   54 type  1   force =     0.00000000    0.00000000    0.00000000
     atom   55 type  1   force =     0.00000000    0.00000000    0.00000000
     atom   56 type  2   force =     0.00000000    0.00000000    0.00000000
     The SCF correction term to forces
     atom    1 type  1   force =     0.00002952    0.00002110   -0.00000209
     atom    2 type  1   force =    -0.00001686    0.00002673   -0.00002733
     atom    3 type  1   force =     0.00000904    0.00002508   -0.00001103
     atom    4 type  1   force =     0.00002677    0.00001311   -0.00000890
     atom    5 type  1   force =     0.00003288   -0.00000044    0.00001380
     atom    6 type  1   force =     0.00001524   -0.00001199    0.00002890
     atom    7 type  1   force =     0.00003606    0.00001370    0.00001462
     atom    8 type  1   force =    -0.00000718   -0.00001000    0.00001356
     atom    9 type  1   force =    -0.00003009    0.00000246   -0.00004434
     atom   10 type  1   force =    -0.00002103   -0.00000736   -0.00004028
     atom   11 type  1   force =    -0.00002298   -0.00000677   -0.00006439
     atom   12 type  1   force =    -0.00002419   -0.00000539   -0.00002293
     atom   13 type  1   force =     0.00002980    0.00002184    0.00001108
     atom   14 type  1   force =    -0.00002273   -0.00000184    0.00000003
     atom   15 type  1   force =    -0.00000905    0.00000787    0.00001543
     atom   16 type  1   force =    -0.00000765   -0.00000178   -0.00004058
     atom   17 type  1   force =    -0.00000275    0.00000001   -0.00005284
     atom   18 type  1   force =    -0.00003707    0.00000922   -0.00000742
     atom   19 type  1   force =     0.00000993   -0.00000408   -0.00004605
     atom   20 type  1   force =     0.00000035    0.00000011   -0.00001036
     atom   21 type  1   force =     0.00002156    0.00002912   -0.00000221
     atom   22 type  1   force =    -0.00002165    0.00001158   -0.00002195
     atom   23 type  1   force =     0.00002217    0.00001017    0.00001634
     atom   24 type  1   force =     0.00000954    0.00000368   -0.00003317
     atom   25 type  1   force =    -0.00003562   -0.00001992   -0.00001306
     atom   26 type  1   force =    -0.00000321   -0.00000554   -0.00003029
     atom   27 type  1   force =     0.00000396   -0.00003023   -0.00000004
     atom   28 type  1   force =    -0.00003383   -0.00002841   -0.00006176
     atom   29 type  1   force =    -0.00002911   -0.00001802   -0.00001843
     atom   30 type  1   force =     0.00002334   -0.00000669    0.00000356
     atom   31 type  1   force =    -0.00000823   -0.00000473   -0.00003259
     atom   32 type  1   force =     0.00000169    0.00000950    0.00000106
     atom   33 type  1   force =    -0.00004364   -0.00000775   -0.00000011
     atom   34 type  1   force =    -0.00001572   -0.00002494    0.00000109
     atom   35 type  1   force =     0.00001136    0.00001817   -0.00003710
     atom   36 type  1   force =    -0.00001858    0.00003185   -0.00001232
     atom   37 type  1   force =     0.00001454    0.00000178   -0.00001196
     atom   38 type  1   force =    -0.00001445   -0.00000748    0.00000521
     atom   39 type  1   force =     0.00002403   -0.00000048   -0.00003006
     atom   40 type  1   force =    -0.00000304    0.00001758    0.00001163
     atom   41 type  1   force =    -0.00001545   -0.00001316   -0.00001123
     atom   42 type  1   force =    -0.00001442   -0.00000543   -0.00000004
     atom   43 type  1   force =    -0.00003487   -0.00001586    0.00000080
     atom   44 type  1   force =    -0.00003194   -0.00002830   -0.00003362
     atom   45 type  1   force =    -0.00001933   -0.00001572   -0.00006802
     atom   46 type  1   force =     0.00001949   -0.00001891   -0.00003817
     atom   47 type  1   force =    -0.00003241   -0.00001464   -0.00000222
     atom   48 type  1   force =    -0.00002798   -0.00001164   -0.00002668
     atom   49 type  1   force =    -0.00002199   -0.00002590    0.00001377
     atom   50 type  1   force =    -0.00004630   -0.00002964   -0.00000034
     atom   51 type  1   force =     0.00001983    0.00003157   -0.00002073
     atom   52 type  1   force =    -0.00001632    0.00001714   -0.00005221
     atom   53 type  1   force =    -0.00001978    0.00001710   -0.00004383
     atom   54 type  1   force =     0.00000424   -0.00000833   -0.00000528
     atom   55 type  1   force =    -0.00000956   -0.00000538   -0.00000063
     atom   56 type  2   force =     0.00000125    0.00000136   -0.00000042

     Total force =     0.004367     Total SCF correction =     0.000291
     Energy error            =      3.8E-05 Ry
     Gradient error          =      9.5E-04 Ry/Bohr

     bfgs converged in  28 scf cycles and  27 bfgs steps
     (criteria: energy <  1.0E-04 Ry, force <  1.0E-03 Ry/Bohr)

     End of BFGS Geometry Optimization

     Final energy             =  -11591.9810243016 Ry

     File ./out/calc.bfgs deleted, as requested
Begin final coordinates

ATOMIC_POSITIONS (angstrom)
Pt              -2.4056807821       -2.6157718007       -4.3284470680
Pt               1.7650126107       -3.8450210709       -0.9418270474
Pt              -0.8291177533       -4.2099383496       -0.2673183504
Pt              -1.0780847818       -0.2398811258       -2.3274949356
Pt              -2.7125881559        1.8347571880       -2.9715589814
Pt              -0.4571543083        1.4921217094       -4.5191674704
Pt              -2.4937275847       -0.0506731986       -5.0269413767
Pt              -4.4386227273        0.1624335146        1.7098392379
Pt               0.6681875544       -0.8753270584        1.6339165788
Pt               1.0122364057        1.2991533338       -1.6092073756
Pt               2.5991319085        0.2635336964        0.1903905449
Pt               1.0445031296       -3.6766298709        1.6662146036
Pt              -3.6538711969       -0.8337982865       -2.7334362496
Pt              -2.4105709356       -2.6749632905        4.5854377076
Pt              -4.0092678685       -2.3650334069        2.4219376604
Pt               4.9098306452        0.5388432274       -0.9685790034
Pt               2.5811508875        3.8692381311        0.8746703143
Pt               4.2779608987       -0.6102779840       -3.3001723903
Pt              -1.8057763050        1.0751652173       -0.2087560030
Pt              -4.1872717026        2.7424366066        1.1307100396
Pt              -2.8348628070       -3.3665540300       -1.9010215365
Pt               0.6028512211        4.3378691776        2.5639844379
Pt              -0.0857319189       -1.2956503630       -4.5596079413
Pt               4.5442702812       -1.0029290378        1.3495459095
Pt               3.6988171240        1.9473686631       -2.8705499556
Pt               4.5478269502        3.2343894112       -0.7166739534
Pt              -0.4541465676        3.4067138616       -2.5744374784
Pt               0.4425903583        1.7180485089        0.9875514123
Pt              -1.7880583767       -0.0676160257        2.0856082133
Pt               3.8494200474        0.3154122758        3.5778168358
Pt               3.6011870534       -3.4816663403        0.9757920906
Pt              -4.1416297352       -1.6744962591       -0.2337899600
Pt              -1.3437242651       -0.1733401864        4.6366685140
Pt              -3.0267819851        1.8053860999        3.4792848360
Pt              -1.4488533941       -1.5786054764       -0.0272878453
Pt               2.1386695361       -2.1801941887       -3.3089612806
Pt              -4.3005890874        0.9304091487       -0.8674408119
Pt               1.9308215292        0.3829902951       -4.0938429398
Pt               4.3291528462        1.7749275514        1.4503972509
Pt              -3.4390661481       -4.1181148841        0.5484011206
Pt               2.6957938095       -2.0437042953        3.0475184570
Pt              -1.5234853313       -3.3638049254        2.1867813809
Pt               0.1695426948       -2.4468286411        3.9543617169
Pt               2.0907063840        3.7600374496       -1.7181291229
Pt               0.0288210231        4.1869561187       -0.0429197799
Pt              -2.4515941514        3.4962325270       -0.8289653191
Pt               1.2667737834        0.0049455881        4.1252769346
Pt              -1.8182083377        3.5270452079        1.8319299758
Pt               1.6649710903        3.0346491272       -4.2425361553
Pt              -0.3643736953        2.1237670465        3.6929213116
Pt              -0.2289161493       -3.2754055740       -2.7016980011
Pt               3.9295861917       -2.0493606406       -1.1579485276
Pt               1.0563163770       -1.3679053186       -1.0950133841
Pt               2.2315830618        2.3254498144        3.1059155343
Pt              -4.0104321601       -0.5486901374        4.3050674411
H               -2.9631576407       -1.6127138009       -5.7306810257
End final coordinates

     Writing all to output data dir ./out/calc.save/ :
     XML data file, charge density, pseudopotentials, collected wavefunctions

     General routines

     Parallel routines

   This run was terminated on:  11:56:10  27Jul2025

   JOB DONE.