     Program PWSCF v.7.3.1 starts on 24Jul2025 at 20:21:26

     Reading input from espresso.pwi
Warning: card &CELL ignored
Warning: card  CELL_DOFREE = 'IBRAV', ignored
Warning: card / ignored

     Current dimensions of program PWSCF are:
     Max number of different atomic species (ntypx) = 10
     Max number of k-points (npk) =  40000
     Max angular momentum in pseudopotentials (lmaxx) =  4
     Message from routine iosys:
     restart disabled: needed files not found

     IMPORTANT: XC functional enforced from input :
     Exchange-correlation= RVV10
                           (   1   4  13   4  26   0   0)
     Any further DFT definition will be discarded
     Please, verify this is what you really want

     Atomic positions and unit cell read from directory:
     ./out/calc.save/
     Message from routine qexsd_readschema :
     xml data file ./out/calc.save/data-file-schema.xml not found
     Nothing found: using input atomic positions and unit cell

     gamma-point specific algorithms are used

     R & G space division:  proc/nbgrp/npool/nimage =      36
     Subspace diagonalization in iterative solution of the eigenvalue problem:
     one sub-group per band group will be used

     Using Slab Decomposition

     Title:
     Pt55 DRC DFT-PBE

     bravais-lattice index     =            0
     lattice parameter (alat)  =      37.7945  a.u.
     unit-cell volume          =   53986.6760 (a.u.)^3
     number of atoms/cell      =           56
     number of atomic types    =            2
     number of electrons       =       881.00
     number of Kohn-Sham states=          529
     kinetic-energy cutoff     =      60.0000  Ry
     charge density cutoff     =     480.0000  Ry
     scf convergence threshold =      1.0E-06
     mixing beta               =       0.2000
     number of iterations used =            8  plain     mixing
     energy convergence thresh.=      1.0E-04
     force convergence thresh. =      1.0E-03
     Exchange-correlation= RVV10
                           (   1   4  13   4  26   0   0)
     nstep                     =        10000

     celldm(1)=  37.794522  celldm(2)=   0.000000  celldm(3)=   0.000000
     celldm(4)=   0.000000  celldm(5)=   0.000000  celldm(6)=   0.000000

     crystal axes: (cart. coord. in units of alat)
               a(1) = (   1.000000   0.000000   0.000000 )
               a(2) = (   0.000000   1.000000   0.000000 )
               a(3) = (   0.000000   0.000000   1.000000 )

     reciprocal axes: (cart. coord. in units 2 pi/alat)
               b(1) = (  1.000000  0.000000  0.000000 )
               b(2) = (  0.000000  1.000000  0.000000 )
               b(3) = (  0.000000  0.000000  1.000000 )

     PseudoPot. # 1 for Pt read from file:
     /home/james/work/espresso/SSSP_1.3.0_PBE_efficiency/pt_pbe_v1.4.uspp.F.UPF
     MD5 check sum: f09d6de1a584b5a045c4fc126da2d0c4
     Pseudo is Ultrasoft + core correction, Zval = 16.0
     Generated by new atomic code, or converted to UPF format
     Using radial grid of  985 points,  6 beta functions with:
                l(1) =   0
                l(2) =   0
                l(3) =   1
                l(4) =   1
                l(5) =   2
                l(6) =   2
     Q(r) pseudized with  8 coefficients,  rinner =    1.300   1.300   1.300
                                                       1.300   1.300

     PseudoPot. # 2 for H  read from file:
     /home/james/work/espresso/SSSP_1.3.0_PBE_efficiency/H.pbe-rrkjus_psl.1.0.0.UPF
     MD5 check sum: f52b6d4d1c606e5624b1dc7b2218f220
     Pseudo is Ultrasoft, Zval =  1.0
     Generated using "atomic" code by A. Dal Corso  v.5.1
     Using radial grid of  929 points,  2 beta functions with:
                l(1) =   0
                l(2) =   0
     Q(r) pseudized with 0 coefficients

     atomic species   valence    mass     pseudopotential
     Pt               16.00   195.08400     Pt( 1.00)
     H                 1.00     1.00800     H ( 1.00)

     Starting magnetic structure
     atomic species   magnetization
     Pt              0.010
     H               0.000

     No symmetry found

                                    s                        frac. trans.

      isym =  1     identity

 cryst.   s( 1) = (     1          0          0      )
                  (     0          1          0      )
                  (     0          0          1      )

 cart.    s( 1) = (  1.0000000  0.0000000  0.0000000 )
                  (  0.0000000  1.0000000  0.0000000 )
                  (  0.0000000  0.0000000  1.0000000 )

   Cartesian axes

     site n.     atom                  positions (alat units)
         1        Pt     tau(   1) = (  -0.1184692  -0.1289811  -0.2146595  )
         2        Pt     tau(   2) = (   0.0879732  -0.1905563  -0.0473935  )
         3        Pt     tau(   3) = (  -0.0407954  -0.2088642  -0.0136076  )
         4        Pt     tau(   4) = (  -0.0534911  -0.0140564  -0.1170277  )
         5        Pt     tau(   5) = (  -0.1338863   0.0930485  -0.1450428  )
         6        Pt     tau(   6) = (  -0.0216487   0.0742489  -0.2224670  )
         7        Pt     tau(   7) = (  -0.1228422  -0.0003186  -0.2473079  )
         8        Pt     tau(   8) = (  -0.2193709   0.0091502   0.0852671  )
         9        Pt     tau(   9) = (   0.0332487  -0.0443171   0.0797488  )
        10        Pt     tau(  10) = (   0.0490643   0.0649223  -0.0801249  )
        11        Pt     tau(  11) = (   0.1286964   0.0142868   0.0087880  )
        12        Pt     tau(  12) = (   0.0516947  -0.1831859   0.0823583  )
        13        Pt     tau(  13) = (  -0.1824139  -0.0401985  -0.1364734  )
        14        Pt     tau(  14) = (  -0.1203394  -0.1322049   0.2271575  )
        15        Pt     tau(  15) = (  -0.1987900  -0.1171753   0.1194564  )
        16        Pt     tau(  16) = (   0.2439832   0.0269829  -0.0478417  )
        17        Pt     tau(  17) = (   0.1291423   0.1929666   0.0441357  )
        18        Pt     tau(  18) = (   0.2135598  -0.0299727  -0.1637702  )
        19        Pt     tau(  19) = (  -0.0893648   0.0523185  -0.0126911  )
        20        Pt     tau(  20) = (  -0.2080250   0.1375869   0.0577217  )
        21        Pt     tau(  21) = (  -0.1409462  -0.1648513  -0.0948211  )
        22        Pt     tau(  22) = (   0.0306188   0.2158309   0.1283915  )
        23        Pt     tau(  23) = (  -0.0038981  -0.0644102  -0.2279053  )
        24        Pt     tau(  24) = (   0.2243978  -0.0502054   0.0665406  )
        25        Pt     tau(  25) = (   0.1820945   0.0964271  -0.1408716  )
        26        Pt     tau(  26) = (   0.2264479   0.1612750  -0.0350756  )
        27        Pt     tau(  27) = (  -0.0229513   0.1709344  -0.1259021  )
        28        Pt     tau(  28) = (   0.0207124   0.0847292   0.0494645  )
        29        Pt     tau(  29) = (  -0.0882590  -0.0022267   0.1018400  )
        30        Pt     tau(  30) = (   0.1907775   0.0152478   0.1772775  )
        31        Pt     tau(  31) = (   0.1789948  -0.1737259   0.0478570  )
        32        Pt     tau(  32) = (  -0.2068087  -0.0814042  -0.0116031  )
        33        Pt     tau(  33) = (  -0.0671348  -0.0085571   0.2287301  )
        34        Pt     tau(  34) = (  -0.1498055   0.0904163   0.1729490  )
        35        Pt     tau(  35) = (  -0.0719561  -0.0785236  -0.0018603  )
        36        Pt     tau(  36) = (   0.1074455  -0.1080978  -0.1653069  )
        37        Pt     tau(  37) = (  -0.2143159   0.0476112  -0.0425252  )
        38        Pt     tau(  38) = (   0.0970606   0.0186090  -0.2042751  )
        39        Pt     tau(  39) = (   0.2152744   0.0880652   0.0720890  )
        40        Pt     tau(  40) = (  -0.1702640  -0.2033339   0.0251930  )
        41        Pt     tau(  41) = (   0.1333264  -0.1021657   0.1506856  )
        42        Pt     tau(  42) = (  -0.0758684  -0.1667120   0.1080652  )
        43        Pt     tau(  43) = (   0.0079707  -0.1220948   0.1959394  )
        44        Pt     tau(  44) = (   0.1035756   0.1872857  -0.0840180  )
        45        Pt     tau(  45) = (   0.0017203   0.2074397  -0.0000028  )
        46        Pt     tau(  46) = (  -0.1214752   0.1735622  -0.0383396  )
        47        Pt     tau(  47) = (   0.0626453  -0.0003444   0.2036670  )
        48        Pt     tau(  48) = (  -0.0911473   0.1789724   0.0937393  )
        49        Pt     tau(  49) = (   0.0820102   0.1511787  -0.2092932  )
        50        Pt     tau(  50) = (  -0.0177604   0.1051450   0.1826634  )
        51        Pt     tau(  51) = (  -0.0105208  -0.1612931  -0.1336594  )
        52        Pt     tau(  52) = (   0.1953231  -0.1018990  -0.0580435  )
        53        Pt     tau(  53) = (   0.0533890  -0.0672335  -0.0550032  )
        54        Pt     tau(  54) = (   0.1107939   0.1151121   0.1533706  )
        55        Pt     tau(  55) = (  -0.1993928  -0.0264440   0.2138168  )
        56        H      tau(  56) = (  -0.0800429  -0.0804976  -0.2929531  )

   Crystallographic axes

     site n.     atom                  positions (cryst. coord.)
         1        Pt     tau(   1) = ( -0.1184692 -0.1289811 -0.2146595  )
         2        Pt     tau(   2) = (  0.0879732 -0.1905563 -0.0473935  )
         3        Pt     tau(   3) = ( -0.0407954 -0.2088642 -0.0136076  )
         4        Pt     tau(   4) = ( -0.0534911 -0.0140564 -0.1170277  )
         5        Pt     tau(   5) = ( -0.1338863  0.0930485 -0.1450428  )
         6        Pt     tau(   6) = ( -0.0216487  0.0742489 -0.2224670  )
         7        Pt     tau(   7) = ( -0.1228422 -0.0003186 -0.2473079  )
         8        Pt     tau(   8) = ( -0.2193709  0.0091502  0.0852671  )
         9        Pt     tau(   9) = (  0.0332487 -0.0443171  0.0797488  )
        10        Pt     tau(  10) = (  0.0490643  0.0649223 -0.0801249  )
        11        Pt     tau(  11) = (  0.1286964  0.0142868  0.0087880  )
        12        Pt     tau(  12) = (  0.0516947 -0.1831859  0.0823583  )
        13        Pt     tau(  13) = ( -0.1824139 -0.0401985 -0.1364734  )
        14        Pt     tau(  14) = ( -0.1203394 -0.1322049  0.2271575  )
        15        Pt     tau(  15) = ( -0.1987900 -0.1171753  0.1194564  )
        16        Pt     tau(  16) = (  0.2439832  0.0269829 -0.0478417  )
        17        Pt     tau(  17) = (  0.1291423  0.1929666  0.0441357  )
        18        Pt     tau(  18) = (  0.2135598 -0.0299727 -0.1637702  )
        19        Pt     tau(  19) = ( -0.0893648  0.0523185 -0.0126911  )
        20        Pt     tau(  20) = ( -0.2080250  0.1375869  0.0577217  )
        21        Pt     tau(  21) = ( -0.1409462 -0.1648513 -0.0948211  )
        22        Pt     tau(  22) = (  0.0306188  0.2158309  0.1283915  )
        23        Pt     tau(  23) = ( -0.0038981 -0.0644102 -0.2279053  )
        24        Pt     tau(  24) = (  0.2243978 -0.0502054  0.0665406  )
        25        Pt     tau(  25) = (  0.1820945  0.0964271 -0.1408716  )
        26        Pt     tau(  26) = (  0.2264479  0.1612750 -0.0350756  )
        27        Pt     tau(  27) = ( -0.0229513  0.1709344 -0.1259021  )
        28        Pt     tau(  28) = (  0.0207124  0.0847292  0.0494645  )
[...]
     atom   11 type  1   force =     0.01140567   -0.00374285    0.00199349
     atom   12 type  1   force =    -0.00157041    0.01883330   -0.00837149
     atom   13 type  1   force =     0.02473977   -0.00183648    0.00635056
     atom   14 type  1   force =     0.00421605    0.00993096   -0.01415137
     atom   15 type  1   force =     0.02251525    0.01285493   -0.00162841
     atom   16 type  1   force =    -0.02342703    0.00089280    0.00186096
     atom   17 type  1   force =    -0.00751674   -0.02166365   -0.00550963
     atom   18 type  1   force =    -0.01204007    0.00549580    0.01093997
     atom   19 type  1   force =    -0.01091232    0.00639579   -0.00799505
     atom   20 type  1   force =     0.01026320   -0.00818099    0.00162865
     atom   21 type  1   force =     0.01264408    0.01936613    0.00855622
     atom   22 type  1   force =    -0.00273119   -0.01561295   -0.00807629
     atom   23 type  1   force =    -0.00762950    0.01029871    0.02425216
     atom   24 type  1   force =    -0.02262179    0.00599584   -0.00360805
     atom   25 type  1   force =    -0.02111977   -0.01423600    0.01983049
     atom   26 type  1   force =    -0.01189081   -0.01250674   -0.00142927
     atom   27 type  1   force =     0.00842953   -0.01831675    0.00710431
     atom   28 type  1   force =    -0.00210391    0.00705883    0.00482045
     atom   29 type  1   force =     0.00101986    0.00589474    0.00161274
     atom   30 type  1   force =    -0.01057134   -0.00144788   -0.01015931
     atom   31 type  1   force =    -0.00899024    0.01172105   -0.00174657
     atom   32 type  1   force =     0.01660384    0.00134276    0.00241323
     atom   33 type  1   force =    -0.00469055   -0.00338863   -0.01905641
     atom   34 type  1   force =     0.01360068   -0.01706145   -0.02062510
     atom   35 type  1   force =     0.00018804   -0.00725928   -0.00277132
     atom   36 type  1   force =    -0.00584933    0.01258960    0.01510346
     atom   37 type  1   force =     0.01864986   -0.00494705    0.00841684
     atom   38 type  1   force =    -0.00451532    0.00302242    0.01630804
     atom   39 type  1   force =    -0.01710622   -0.00781245   -0.00779961
     atom   40 type  1   force =     0.01262178    0.01374651   -0.00136746
     atom   41 type  1   force =    -0.01212835    0.01326396   -0.02262296
     atom   42 type  1   force =    -0.00392365    0.01878802   -0.00029443
     atom   43 type  1   force =    -0.00617389    0.01359993   -0.01591278
     atom   44 type  1   force =    -0.00155977   -0.01857993    0.00607197
     atom   45 type  1   force =     0.00074659   -0.02003656    0.00493005
     atom   46 type  1   force =     0.01135804   -0.01954097    0.00576462
     atom   47 type  1   force =    -0.00104827   -0.00000866   -0.02019954
     atom   48 type  1   force =     0.00694561   -0.02254496   -0.00972955
     atom   49 type  1   force =    -0.00235609   -0.00812606    0.01236506
     atom   50 type  1   force =     0.00037014   -0.00825532   -0.02143550
     atom   51 type  1   force =    -0.00607634    0.02065486    0.00900908
     atom   52 type  1   force =    -0.01625472    0.01154364    0.00606796
     atom   53 type  1   force =     0.00502589   -0.01370688   -0.01289026
     atom   54 type  1   force =    -0.00762213   -0.01250420   -0.01763676
     atom   55 type  1   force =     0.01608054   -0.00124976   -0.01177779
     atom   56 type  2   force =     0.00000000    0.00000000    0.00000000
     The Hubbard contrib.    to forces
     atom    1 type  1   force =     0.00000000    0.00000000    0.00000000
     atom    2 type  1   force =     0.00000000    0.00000000    0.00000000
     atom    3 type  1   force =     0.00000000    0.00000000    0.00000000
     atom    4 type  1   force =     0.00000000    0.00000000    0.00000000
     atom    5 type  1   force =     0.00000000    0.00000000    0.00000000
     atom    6 type  1   force =     0.00000000    0.00000000    0.00000000
     atom    7 type  1   force =     0.00000000    0.00000000    0.00000000
     atom    8 type  1   force =     0.00000000    0.00000000    0.00000000
     atom    9 type  1   force =     0.00000000    0.00000000    0.00000000
     atom   10 type  1   force =     0.00000000    0.00000000    0.00000000
     atom   11 type  1   force =     0.00000000    0.00000000    0.00000000
     atom   12 type  1   force =     0.00000000    0.00000000    0.00000000
     atom   13 type  1   force =     0.00000000    0.00000000    0.00000000
     atom   14 type  1   force =     0.00000000    0.00000000    0.00000000
     atom   15 type  1   force =     0.00000000    0.00000000    0.00000000
     atom   16 type  1   force =     0.00000000    0.00000000    0.00000000
     atom   17 type  1   force =     0.00000000    0.00000000    0.00000000
     atom   18 type  1   force =     0.00000000    0.00000000    0.00000000
     atom   19 type  1   force =     0.00000000    0.00000000    0.00000000
     atom   20 type  1   force =     0.00000000    0.00000000    0.00000000
     atom   21 type  1   force =     0.00000000    0.00000000    0.00000000
     atom   22 type  1   force =     0.00000000    0.00000000    0.00000000
     atom   23 type  1   force =     0.00000000    0.00000000    0.00000000
     atom   24 type  1   force =     0.00000000    0.00000000    0.00000000
     atom   25 type  1   force =     0.00000000    0.00000000    0.00000000
     atom   26 type  1   force =     0.00000000    0.00000000    0.00000000
     atom   27 type  1   force =     0.00000000    0.00000000    0.00000000
     atom   28 type  1   force =     0.00000000    0.00000000    0.00000000
     atom   29 type  1   force =     0.00000000    0.00000000    0.00000000
     atom   30 type  1   force =     0.00000000    0.00000000    0.00000000
     atom   31 type  1   force =     0.00000000    0.00000000    0.00000000
     atom   32 type  1   force =     0.00000000    0.00000000    0.00000000
     atom   33 type  1   force =     0.00000000    0.00000000    0.00000000
     atom   34 type  1   force =     0.00000000    0.00000000    0.00000000
     atom   35 type  1   force =     0.00000000    0.00000000    0.00000000
     atom   36 type  1   force =     0.00000000    0.00000000    0.00000000
     atom   37 type  1   force =     0.00000000    0.00000000    0.00000000
     atom   38 type  1   force =     0.00000000    0.00000000    0.00000000
     atom   39 type  1   force =     0.00000000    0.00000000    0.00000000
     atom   40 type  1   force =     0.00000000    0.00000000    0.00000000
     atom   41 type  1   force =     0.00000000    0.00000000    0.00000000
     atom   42 type  1   force =     0.00000000    0.00000000    0.00000000
     atom   43 type  1   force =     0.00000000    0.00000000    0.00000000
     atom   44 type  1   force =     0.00000000    0.00000000    0.00000000
     atom   45 type  1   force =     0.00000000    0.00000000    0.00000000
     atom   46 type  1   force =     0.00000000    0.00000000    0.00000000
     atom   47 type  1   force =     0.00000000    0.00000000    0.00000000
     atom   48 type  1   force =     0.00000000    0.00000000    0.00000000
     atom   49 type  1   force =     0.00000000    0.00000000    0.00000000
     atom   50 type  1   force =     0.00000000    0.00000000    0.00000000
     atom   51 type  1   force =     0.00000000    0.00000000    0.00000000
     atom   52 type  1   force =     0.00000000    0.00000000    0.00000000
     atom   53 type  1   force =     0.00000000    0.00000000    0.00000000
     atom   54 type  1   force =     0.00000000    0.00000000    0.00000000
     atom   55 type  1   force =     0.00000000    0.00000000    0.00000000
     atom   56 type  2   force =     0.00000000    0.00000000    0.00000000
     The SCF correction term to forces
     atom    1 type  1   force =     0.00001346   -0.00002653   -0.00001103
     atom    2 type  1   force =     0.00000211    0.00001477    0.00003221
     atom    3 type  1   force =     0.00002781    0.00001475    0.00003958
     atom    4 type  1   force =     0.00002304   -0.00004755    0.00001102
     atom    5 type  1   force =    -0.00000095    0.00001068   -0.00001263
     atom    6 type  1   force =     0.00002594   -0.00000099   -0.00003545
     atom    7 type  1   force =     0.00000804   -0.00001657   -0.00003494
     atom    8 type  1   force =     0.00002169   -0.00002843    0.00004746
     atom    9 type  1   force =    -0.00000411   -0.00006296    0.00003758
     atom   10 type  1   force =     0.00000846   -0.00004471   -0.00000033
     atom   11 type  1   force =     0.00000446   -0.00007961    0.00002654
     atom   12 type  1   force =    -0.00000709    0.00003418    0.00001385
     atom   13 type  1   force =    -0.00000611   -0.00003061   -0.00000354
     atom   14 type  1   force =     0.00002506    0.00002023   -0.00002158
     atom   15 type  1   force =     0.00004517    0.00000173    0.00003139
     atom   16 type  1   force =     0.00001677   -0.00005163   -0.00000386
     atom   17 type  1   force =     0.00002494    0.00002064    0.00001933
     atom   18 type  1   force =     0.00000724   -0.00002167    0.00000086
     atom   19 type  1   force =     0.00000711   -0.00003476    0.00004880
     atom   20 type  1   force =    -0.00000598   -0.00000594    0.00003174
     atom   21 type  1   force =     0.00002087   -0.00002525    0.00002488
     atom   22 type  1   force =    -0.00000104    0.00001289    0.00003119
     atom   23 type  1   force =     0.00002778   -0.00002020   -0.00001260
     atom   24 type  1   force =    -0.00001856   -0.00003810    0.00001037
     atom   25 type  1   force =     0.00002305   -0.00002051   -0.00003228
     atom   26 type  1   force =     0.00003828    0.00000284   -0.00001115
     atom   27 type  1   force =     0.00001231    0.00003053   -0.00002575
     atom   28 type  1   force =    -0.00001149   -0.00006147    0.00004119
     atom   29 type  1   force =     0.00001353   -0.00006136    0.00004761
     atom   30 type  1   force =    -0.00000807   -0.00003531    0.00000972
     atom   31 type  1   force =    -0.00002626    0.00001776    0.00000824
     atom   32 type  1   force =     0.00002151   -0.00003145    0.00004669
     atom   33 type  1   force =    -0.00000338   -0.00005213   -0.00001994
     atom   34 type  1   force =    -0.00000084   -0.00004429    0.00001840
     atom   35 type  1   force =     0.00002896   -0.00004396    0.00007045
     atom   36 type  1   force =     0.00001961   -0.00001286    0.00001655
     atom   37 type  1   force =    -0.00001320   -0.00000700    0.00003344
     atom   38 type  1   force =     0.00002671   -0.00002438   -0.00001328
     atom   39 type  1   force =     0.00002841   -0.00003967    0.00003534
     atom   40 type  1   force =     0.00003143    0.00000330    0.00002846
     atom   41 type  1   force =    -0.00002956   -0.00000798   -0.00001129
     atom   42 type  1   force =     0.00002975    0.00002953    0.00002129
     atom   43 type  1   force =    -0.00001149    0.00000402   -0.00003003
     atom   44 type  1   force =     0.00001123    0.00001608   -0.00003010
     atom   45 type  1   force =    -0.00001094    0.00002758   -0.00000150
     atom   46 type  1   force =    -0.00001172    0.00002530    0.00001679
     atom   47 type  1   force =    -0.00000896   -0.00005455   -0.00000815
     atom   48 type  1   force =    -0.00002136   -0.00000927    0.00002448
     atom   49 type  1   force =     0.00001757    0.00000905   -0.00003316
     atom   50 type  1   force =    -0.00000998   -0.00005040    0.00002954
     atom   51 type  1   force =     0.00002589   -0.00001305    0.00002433
     atom   52 type  1   force =    -0.00000689   -0.00001701    0.00001697
     atom   53 type  1   force =     0.00002485   -0.00004977    0.00004618
     atom   54 type  1   force =     0.00001598   -0.00004698    0.00003608
     atom   55 type  1   force =     0.00003830   -0.00002077   -0.00000011
     atom   56 type  2   force =     0.00000088   -0.00000093   -0.00000140

     Total force =     0.004405     Total SCF correction =     0.000357
     Energy error            =      4.6E-05 Ry
     Gradient error          =      9.5E-04 Ry/Bohr

     bfgs converged in  46 scf cycles and  45 bfgs steps
     (criteria: energy <  1.0E-04 Ry, force <  1.0E-03 Ry/Bohr)

     End of BFGS Geometry Optimization

     Final energy             =  -11591.9701898335 Ry

     File ./out/calc.bfgs deleted, as requested
Begin final coordinates

ATOMIC_POSITIONS (angstrom)
Pt              -2.3836059112       -2.6385888002       -4.2556495801
Pt               1.7827501010       -3.8720659553       -0.9558490017
Pt              -0.8088528458       -4.2305041017       -0.2669282595
Pt              -1.1478686256       -0.5728263228       -2.4423461954
Pt              -2.6744524759        1.7745265079       -2.8936152774
Pt              -0.4094452814        1.4850032481       -4.4359794986
Pt              -2.4323868937       -0.0463341491       -4.9741498297
Pt              -4.4215427148        0.1985744443        1.7589155841
Pt               0.6716251862       -0.8574792791        1.6478806157
Pt               0.8465300050        1.1967845370       -1.6409484153
Pt               2.5466738350        0.2917112370        0.1578814586
Pt               1.0471219279       -3.6774559515        1.6581477346
Pt              -3.7929026735       -0.8220043724       -2.7535944115
Pt              -2.4094663586       -2.6644673114        4.5823839647
Pt              -3.9795957462       -2.3505562194        2.4246903552
Pt               4.8874341074        0.5306810766       -0.9745322682
Pt               2.5848825931        3.8937751892        0.8818318342
Pt               4.2979139501       -0.6291126283       -3.3082772637
Pt              -1.7440743220        1.0317445369       -0.4061776717
Pt              -4.1827614943        2.7797412748        1.1976550922
Pt              -2.8422139051       -3.2886425263       -1.8443144272
Pt               0.6210620501        4.3624007966        2.5909959227
Pt              -0.0067191906       -1.3930082111       -4.7674889372
Pt               4.4971638424       -0.9899806819        1.3201333027
Pt               3.6796059327        1.9265638632       -2.8707923226
Pt               4.5377974355        3.2344879552       -0.7330628067
Pt              -0.4946987427        3.4200000277       -2.5295292029
Pt               0.4075677255        1.7540262402        1.0169404332
Pt              -1.7727292081        0.1173549941        1.9909177001
Pt               3.8507780843        0.3247337675        3.5612019744
Pt               3.6014605503       -3.4943358995        0.9691266443
Pt              -4.1844996756       -1.6401539319       -0.1833634521
Pt              -1.3526990419       -0.1749931231        4.5661198961
Pt              -3.0226380100        1.8480845738        3.5294690548
Pt              -1.4673364434       -1.5939206973        0.0536446364
Pt               2.1454739857       -2.1865884304       -3.3254805943
Pt              -4.3045419894        0.9581480180       -0.8047831450
Pt               1.9475248289        0.3534652727       -4.0933091299
Pt               4.3118195953        1.7741270775        1.4251716733
Pt              -3.4439827272       -4.1126209253        0.5392571800
Pt               2.6876746121       -2.0397847707        3.0405790284
Pt              -1.5257887651       -3.4245103889        2.1906809618
Pt               0.1609875294       -2.4363775259        3.9246170856
Pt               2.0511260441        3.6600075046       -1.6794981472
Pt               0.0180126348        4.2193796917       -0.0131904184
Pt              -2.4728784999        3.4819343490       -0.7517522905
Pt               1.2681168083        0.0169401642        4.1274355325
Pt              -1.8130452673        3.5899650579        1.8912585026
Pt               1.6577978469        3.0380769584       -4.2166178872
Pt              -0.3605248411        2.1485160839        3.7384984351
Pt              -0.2037013681       -3.3034618191       -2.7106753396
Pt               3.9287166543       -2.0584024442       -1.1639635060
Pt               1.0446036219       -1.4052994218       -1.0848955910
Pt               2.2262857609        2.3269475018        3.0887075880
Pt              -4.0008267848       -0.5372800237        4.3182900151
H               -1.2535850657       -0.9068988169       -5.9707299259
End final coordinates

     Writing all to output data dir ./out/calc.save/ :
     XML data file, charge density, pseudopotentials, collected wavefunctions

     General routines

     Parallel routines

   This run was terminated on:   7:50:21  29Jul2025

   JOB DONE.