     Program PWSCF v.7.3.1 starts on 28Apr2025 at 11: 1:24

     Reading input from espresso.pwi
Warning: card   &CELL ignored
Warning: card      CELL_DOFREE = 'IBRAV' ignored
Warning: card / ignored

     Current dimensions of program PWSCF are:
     Max number of different atomic species (ntypx) = 10
     Max number of k-points (npk) =  40000
     Max angular momentum in pseudopotentials (lmaxx) =  4

     IMPORTANT: XC functional enforced from input :
     Exchange-correlation= RVV10
                           (   1   4  13   4  26   0   0)
     Any further DFT definition will be discarded
     Please, verify this is what you really want

     gamma-point specific algorithms are used
     Message from routine setup:
     using ibrav=0 with symmetry is DISCOURAGED, use correct ibrav instead

     R & G space division:  proc/nbgrp/npool/nimage =      36
     Subspace diagonalization in iterative solution of the eigenvalue problem:
     one sub-group per band group will be used

     Using Slab Decomposition

     Title:
     calc

     bravais-lattice index     =            0
     lattice parameter (alat)  =      47.2432  a.u.
     unit-cell volume          =  105442.7265 (a.u.)^3
     number of atoms/cell      =          117
     number of atomic types    =            2
     number of electrons       =      1857.00
     number of Kohn-Sham states=         1115
     kinetic-energy cutoff     =      60.0000  Ry
     charge density cutoff     =     480.0000  Ry
     scf convergence threshold =      1.0E-06
     mixing beta               =       0.1000
     number of iterations used =            8  local-TF  mixing
     energy convergence thresh.=      1.0E-04
     force convergence thresh. =      1.0E-03
     Exchange-correlation= RVV10
                           (   1   4  13   4  26   0   0)
     nstep                     =        10000

     celldm(1)=  47.243153  celldm(2)=   0.000000  celldm(3)=   0.000000
     celldm(4)=   0.000000  celldm(5)=   0.000000  celldm(6)=   0.000000

     crystal axes: (cart. coord. in units of alat)
               a(1) = (   1.000000   0.000000   0.000000 )
               a(2) = (   0.000000   1.000000   0.000000 )
               a(3) = (   0.000000   0.000000   1.000000 )

     reciprocal axes: (cart. coord. in units 2 pi/alat)
               b(1) = (  1.000000  0.000000  0.000000 )
               b(2) = (  0.000000  1.000000  0.000000 )
               b(3) = (  0.000000  0.000000  1.000000 )

     PseudoPot. # 1 for Pt read from file:
     /home/james/work/espresso/SSSP_1.3.0_PBE_efficiency/pt_pbe_v1.4.uspp.F.UPF
     MD5 check sum: f09d6de1a584b5a045c4fc126da2d0c4
     Pseudo is Ultrasoft + core correction, Zval = 16.0
     Generated by new atomic code, or converted to UPF format
     Using radial grid of  985 points,  6 beta functions with:
                l(1) =   0
                l(2) =   0
                l(3) =   1
                l(4) =   1
                l(5) =   2
                l(6) =   2
     Q(r) pseudized with  8 coefficients,  rinner =    1.300   1.300   1.300
                                                       1.300   1.300

     PseudoPot. # 2 for H  read from file:
     /home/james/work/espresso/SSSP_1.3.0_PBE_efficiency/H.pbe-rrkjus_psl.1.0.0.UPF
     MD5 check sum: f52b6d4d1c606e5624b1dc7b2218f220
     Pseudo is Ultrasoft, Zval =  1.0
     Generated using "atomic" code by A. Dal Corso  v.5.1
     Using radial grid of  929 points,  2 beta functions with:
                l(1) =   0
                l(2) =   0
     Q(r) pseudized with 0 coefficients

     atomic species   valence    mass     pseudopotential
     Pt               16.00   195.08400     Pt( 1.00)
     H                 1.00     1.00800     H ( 1.00)

     Starting magnetic structure
     atomic species   magnetization
     Pt              0.010
     H               0.020

      8 Sym. Ops. (no inversion) found

                                    s                        frac. trans.

      isym =  1     identity

 cryst.   s( 1) = (     1          0          0      )
                  (     0          1          0      )
                  (     0          0          1      )

 cart.    s( 1) = (  1.0000000  0.0000000  0.0000000 )
                  (  0.0000000  1.0000000  0.0000000 )
                  (  0.0000000  0.0000000  1.0000000 )

      isym =  2     180 deg rotation - cart. axis [1,0,0]

[...]

      isym =  4      90 deg rotation - cart. axis [1,0,0]

[...]

      isym =  5     inv. 180 deg rotation - cart. axis [0,0,1]

[...]

      isym =  8     inv. 180 deg rotation - cart. axis [0,1,-1]

 cryst.   s( 8) = (     1          0          0      )
                  (     0          0          1      )
                  (     0          1          0      )

 cart.    s( 8) = (  1.0000000  0.0000000  0.0000000 )
                  (  0.0000000  0.0000000  1.0000000 )
                  (  0.0000000  1.0000000  0.0000000 )

   Cartesian axes

     site n.     atom                  positions (alat units)
         1        Pt     tau(   1) = (  -0.2317675  -0.1538076   0.0000000  )
         2        Pt     tau(   2) = (  -0.1538076  -0.2317675   0.0000000  )
         3        Pt     tau(   3) = (  -0.1617552  -0.1617552  -0.0847262  )
         4        Pt     tau(   4) = (  -0.1617552  -0.1617552   0.0847262  )
         5        Pt     tau(   5) = (  -0.2317675   0.0000000  -0.1538076  )
         6        Pt     tau(   6) = (  -0.1617552  -0.0847262  -0.1617552  )
         7        Pt     tau(   7) = (  -0.1538076   0.0000000  -0.2317675  )
         8        Pt     tau(   8) = (  -0.2338884  -0.0780549  -0.0780549  )
         9        Pt     tau(   9) = (  -0.2370085   0.0000000   0.0000000  )
        10        Pt     tau(  10) = (  -0.1554443  -0.0788784   0.0000000  )
        11        Pt     tau(  11) = (  -0.1554443   0.0000000  -0.0788784  )
        12        Pt     tau(  12) = (  -0.2338884  -0.0780549   0.0780549  )
        13        Pt     tau(  13) = (  -0.2317675   0.0000000   0.1538076  )
        14        Pt     tau(  14) = (  -0.1617552  -0.0847262   0.1617552  )
        15        Pt     tau(  15) = (  -0.1554443   0.0000000   0.0788784  )
        16        Pt     tau(  16) = (  -0.1538076   0.0000000   0.2317675  )
        17        Pt     tau(  17) = (  -0.1617552   0.0847262  -0.1617552  )
        18        Pt     tau(  18) = (  -0.2338884   0.0780549  -0.0780549  )
        19        Pt     tau(  19) = (  -0.2317675   0.1538076   0.0000000  )
        20        Pt     tau(  20) = (  -0.1554443   0.0788784   0.0000000  )
        21        Pt     tau(  21) = (  -0.1617552   0.1617552  -0.0847262  )
        22        Pt     tau(  22) = (  -0.2338884   0.0780549   0.0780549  )
        23        Pt     tau(  23) = (  -0.1617552   0.0847262   0.1617552  )
        24        Pt     tau(  24) = (  -0.1617552   0.1617552   0.0847262  )
        25        Pt     tau(  25) = (  -0.1538076   0.2317675   0.0000000  )
        26        Pt     tau(  26) = (  -0.0847262  -0.1617552  -0.1617552  )
        27        Pt     tau(  27) = (   0.0000000  -0.2317675  -0.1538076  )
        28        Pt     tau(  28) = (   0.0000000  -0.1538076  -0.2317675  )
        29        Pt     tau(  29) = (  -0.0780549  -0.2338884  -0.0780549  )
        30        Pt     tau(  30) = (  -0.0788784  -0.1554443   0.0000000  )
        31        Pt     tau(  31) = (   0.0000000  -0.2370085   0.0000000  )
        32        Pt     tau(  32) = (   0.0000000  -0.1554443  -0.0788784  )
        33        Pt     tau(  33) = (  -0.0780549  -0.2338884   0.0780549  )
        34        Pt     tau(  34) = (  -0.0847262  -0.1617552   0.1617552  )
        35        Pt     tau(  35) = (   0.0000000  -0.2317675   0.1538076  )
        36        Pt     tau(  36) = (   0.0000000  -0.1554443   0.0788784  )
        37        Pt     tau(  37) = (   0.0000000  -0.1538076   0.2317675  )
        38        Pt     tau(  38) = (  -0.0780549  -0.0780549  -0.2338884  )
        39        Pt     tau(  39) = (  -0.0788784   0.0000000  -0.1554443  )
        40        Pt     tau(  40) = (   0.0000000  -0.0788784  -0.1554443  )
        41        Pt     tau(  41) = (   0.0000000   0.0000000  -0.2370085  )
        42        Pt     tau(  42) = (  -0.0808740  -0.0808740  -0.0808740  )
        43        Pt     tau(  43) = (  -0.0786873   0.0000000   0.0000000  )
        44        Pt     tau(  44) = (   0.0000000  -0.0786873   0.0000000  )
        45        Pt     tau(  45) = (   0.0000000   0.0000000  -0.0786873  )
        46        Pt     tau(  46) = (  -0.0808740  -0.0808740   0.0808740  )
        47        Pt     tau(  47) = (  -0.0788784   0.0000000   0.1554443  )
        48        Pt     tau(  48) = (   0.0000000  -0.0788784   0.1554443  )
        49        Pt     tau(  49) = (   0.0000000   0.0000000   0.0786873  )
        50        Pt     tau(  50) = (  -0.0780549  -0.0780549   0.2338884  )
        51        Pt     tau(  51) = (   0.0000000   0.0000000   0.2370085  )
        52        Pt     tau(  52) = (  -0.0780549   0.0780549  -0.2338884  )
        53        Pt     tau(  53) = (  -0.0847262   0.1617552  -0.1617552  )
        54        Pt     tau(  54) = (   0.0000000   0.0788784  -0.1554443  )
        55        Pt     tau(  55) = (   0.0000000   0.1538076  -0.2317675  )
        56        Pt     tau(  56) = (  -0.0808740   0.0808740  -0.0808740  )
        57        Pt     tau(  57) = (  -0.0788784   0.1554443   0.0000000  )
        58        Pt     tau(  58) = (   0.0000000   0.0786873   0.0000000  )
        59        Pt     tau(  59) = (   0.0000000   0.1554443  -0.0788784  )
        60        Pt     tau(  60) = (  -0.0808740   0.0808740   0.0808740  )
[...]
       103        Pt     tau( 103) = (   0.1617552   0.1617552   0.0847262  )
       104        Pt     tau( 104) = (   0.0780549   0.0780549   0.2338884  )
       105        Pt     tau( 105) = (   0.0780549   0.2338884  -0.0780549  )
       106        Pt     tau( 106) = (   0.1538076   0.2317675   0.0000000  )
       107        Pt     tau( 107) = (   0.0780549   0.2338884   0.0780549  )
       108        Pt     tau( 108) = (   0.2317675  -0.1538076   0.0000000  )
       109        Pt     tau( 109) = (   0.2317675   0.0000000  -0.1538076  )
       110        Pt     tau( 110) = (   0.2338884  -0.0780549  -0.0780549  )
       111        Pt     tau( 111) = (   0.2370085   0.0000000   0.0000000  )
       112        Pt     tau( 112) = (   0.2338884  -0.0780549   0.0780549  )
       113        Pt     tau( 113) = (   0.2317675   0.0000000   0.1538076  )
       114        Pt     tau( 114) = (   0.2338884   0.0780549  -0.0780549  )
       115        Pt     tau( 115) = (   0.2317675   0.1538076   0.0000000  )
       116        Pt     tau( 116) = (   0.2338884   0.0780549   0.0780549  )
       117        H      tau( 117) = (  -0.3090085   0.0000000   0.0000000  )

   Crystallographic axes

     site n.     atom                  positions (cryst. coord.)
         1        Pt     tau(   1) = ( -0.2317675 -0.1538076  0.0000000  )
         2        Pt     tau(   2) = ( -0.1538076 -0.2317675  0.0000000  )
         3        Pt     tau(   3) = ( -0.1617552 -0.1617552 -0.0847262  )
[...]
     atom   10 type  1   force =     0.00000000    0.00000000    0.00000000
     atom   11 type  1   force =     0.00000000    0.00000000    0.00000000
     atom   12 type  1   force =     0.00000000    0.00000000    0.00000000
     atom   13 type  1   force =     0.00000000    0.00000000    0.00000000
     atom   14 type  1   force =     0.00000000    0.00000000    0.00000000
     atom   15 type  1   force =     0.00000000    0.00000000    0.00000000
     atom   16 type  1   force =     0.00000000    0.00000000    0.00000000
     atom   17 type  1   force =     0.00000000    0.00000000    0.00000000
     atom   18 type  1   force =     0.00000000    0.00000000    0.00000000
     atom   19 type  1   force =     0.00000000    0.00000000    0.00000000
     atom   20 type  1   force =     0.00000000    0.00000000    0.00000000
     atom   21 type  1   force =     0.00000000    0.00000000    0.00000000
     atom   22 type  1   force =     0.00000000    0.00000000    0.00000000
     atom   23 type  1   force =     0.00000000    0.00000000    0.00000000
     atom   24 type  1   force =     0.00000000    0.00000000    0.00000000
     atom   25 type  1   force =     0.00000000    0.00000000    0.00000000
     atom   26 type  1   force =     0.00000000    0.00000000    0.00000000
     atom   27 type  1   force =     0.00000000    0.00000000    0.00000000
     atom   28 type  1   force =     0.00000000    0.00000000    0.00000000
     atom   29 type  1   force =     0.00000000    0.00000000    0.00000000
     atom   30 type  1   force =     0.00000000    0.00000000    0.00000000
     atom   31 type  1   force =     0.00000000    0.00000000    0.00000000
     atom   32 type  1   force =     0.00000000    0.00000000    0.00000000
     atom   33 type  1   force =     0.00000000    0.00000000    0.00000000
     atom   34 type  1   force =     0.00000000    0.00000000    0.00000000
     atom   35 type  1   force =     0.00000000    0.00000000    0.00000000
     atom   36 type  1   force =     0.00000000    0.00000000    0.00000000
     atom   37 type  1   force =     0.00000000    0.00000000    0.00000000
     atom   38 type  1   force =     0.00000000    0.00000000    0.00000000
     atom   39 type  1   force =     0.00000000    0.00000000    0.00000000
     atom   40 type  1   force =     0.00000000    0.00000000    0.00000000
     atom   41 type  1   force =     0.00000000    0.00000000    0.00000000
     atom   42 type  1   force =     0.00000000    0.00000000    0.00000000
     atom   43 type  1   force =     0.00000000    0.00000000    0.00000000
     atom   44 type  1   force =     0.00000000    0.00000000    0.00000000
     atom   45 type  1   force =     0.00000000    0.00000000    0.00000000
     atom   46 type  1   force =     0.00000000    0.00000000    0.00000000
     atom   47 type  1   force =     0.00000000    0.00000000    0.00000000
     atom   48 type  1   force =     0.00000000    0.00000000    0.00000000
     atom   49 type  1   force =     0.00000000    0.00000000    0.00000000
     atom   50 type  1   force =     0.00000000    0.00000000    0.00000000
     atom   51 type  1   force =     0.00000000    0.00000000    0.00000000
     atom   52 type  1   force =     0.00000000    0.00000000    0.00000000
     atom   53 type  1   force =     0.00000000    0.00000000    0.00000000
     atom   54 type  1   force =     0.00000000    0.00000000    0.00000000
     atom   55 type  1   force =     0.00000000    0.00000000    0.00000000
     atom   56 type  1   force =     0.00000000    0.00000000    0.00000000
     atom   57 type  1   force =     0.00000000    0.00000000    0.00000000
     atom   58 type  1   force =     0.00000000    0.00000000    0.00000000
     atom   59 type  1   force =     0.00000000    0.00000000    0.00000000
     atom   60 type  1   force =     0.00000000    0.00000000    0.00000000
[...]
     atom  103 type  1   force =     0.00000000    0.00000000    0.00000000
     atom  104 type  1   force =     0.00000000    0.00000000    0.00000000
     atom  105 type  1   force =     0.00000000    0.00000000    0.00000000
     atom  106 type  1   force =     0.00000000    0.00000000    0.00000000
     atom  107 type  1   force =     0.00000000    0.00000000    0.00000000
     atom  108 type  1   force =     0.00000000    0.00000000    0.00000000
     atom  109 type  1   force =     0.00000000    0.00000000    0.00000000
     atom  110 type  1   force =     0.00000000    0.00000000    0.00000000
     atom  111 type  1   force =     0.00000000    0.00000000    0.00000000
     atom  112 type  1   force =     0.00000000    0.00000000    0.00000000
     atom  113 type  1   force =     0.00000000    0.00000000    0.00000000
     atom  114 type  1   force =     0.00000000    0.00000000    0.00000000
     atom  115 type  1   force =     0.00000000    0.00000000    0.00000000
     atom  116 type  1   force =     0.00000000    0.00000000    0.00000000
     atom  117 type  2   force =     0.00000000    0.00000000    0.00000000
     The SCF correction term to forces
     atom    1 type  1   force =    -0.00002476    0.00003296    0.00000002
     atom    2 type  1   force =     0.00000050    0.00001880    0.00000001
     atom    3 type  1   force =    -0.00000255    0.00000624    0.00000668
     atom    4 type  1   force =    -0.00000256    0.00000624   -0.00000667
     atom    5 type  1   force =    -0.00002476   -0.00000001    0.00003296
     atom    6 type  1   force =    -0.00000253    0.00000667    0.00000623
     atom    7 type  1   force =     0.00000053   -0.00000001    0.00001881
     atom    8 type  1   force =    -0.00003205    0.00001930    0.00001927
     atom    9 type  1   force =    -0.00003985   -0.00000000   -0.00000000
     atom   10 type  1   force =    -0.00001755    0.00002306    0.00000001
     atom   11 type  1   force =    -0.00001754   -0.00000002    0.00002306
     atom   12 type  1   force =    -0.00003203    0.00001929   -0.00001926
     atom   13 type  1   force =    -0.00002476   -0.00000003   -0.00003295
     atom   14 type  1   force =    -0.00000257    0.00000667   -0.00000625
     atom   15 type  1   force =    -0.00001756   -0.00000002   -0.00002305
     atom   16 type  1   force =     0.00000050   -0.00000002   -0.00001881
     atom   17 type  1   force =    -0.00000256   -0.00000666    0.00000623
     atom   18 type  1   force =    -0.00003204   -0.00001928    0.00001929
     atom   19 type  1   force =    -0.00002477   -0.00003297    0.00000000
     atom   20 type  1   force =    -0.00001756   -0.00002306    0.00000001
     atom   21 type  1   force =    -0.00000256   -0.00000621    0.00000664
     atom   22 type  1   force =    -0.00003202   -0.00001928   -0.00001929
     atom   23 type  1   force =    -0.00000257   -0.00000666   -0.00000625
     atom   24 type  1   force =    -0.00000254   -0.00000621   -0.00000663
     atom   25 type  1   force =     0.00000052   -0.00001877    0.00000001
     atom   26 type  1   force =     0.00001351    0.00001103    0.00001102
     atom   27 type  1   force =     0.00001357    0.00002238    0.00000664
     atom   28 type  1   force =     0.00001357    0.00000664    0.00002239
     atom   29 type  1   force =     0.00000756    0.00002098    0.00000589
     atom   30 type  1   force =     0.00002182    0.00001528    0.00000001
     atom   31 type  1   force =     0.00000097    0.00002346   -0.00000001
     atom   32 type  1   force =     0.00001271    0.00001898    0.00001437
     atom   33 type  1   force =     0.00000754    0.00002098   -0.00000589
     atom   34 type  1   force =     0.00001351    0.00001102   -0.00001103
     atom   35 type  1   force =     0.00001356    0.00002237   -0.00000664
     atom   36 type  1   force =     0.00001270    0.00001899   -0.00001437
     atom   37 type  1   force =     0.00001356    0.00000663   -0.00002238
     atom   38 type  1   force =     0.00000754    0.00000591    0.00002096
     atom   39 type  1   force =     0.00002184   -0.00000001    0.00001527
     atom   40 type  1   force =     0.00001270    0.00001438    0.00001898
     atom   41 type  1   force =     0.00000092   -0.00000000    0.00002346
     atom   42 type  1   force =     0.00001329    0.00000730    0.00000727
     atom   43 type  1   force =     0.00002140   -0.00000001   -0.00000001
     atom   44 type  1   force =     0.00002367    0.00001196    0.00000000
     atom   45 type  1   force =     0.00002366   -0.00000001    0.00001195
     atom   46 type  1   force =     0.00001328    0.00000727   -0.00000728
     atom   47 type  1   force =     0.00002181   -0.00000001   -0.00001528
     atom   48 type  1   force =     0.00001271    0.00001437   -0.00001900
     atom   49 type  1   force =     0.00002368   -0.00000001   -0.00001197
     atom   50 type  1   force =     0.00000753    0.00000589   -0.00002098
     atom   51 type  1   force =     0.00000097    0.00000001   -0.00002345
     atom   52 type  1   force =     0.00000756   -0.00000591    0.00002096
     atom   53 type  1   force =     0.00001349   -0.00001099    0.00001101
     atom   54 type  1   force =     0.00001272   -0.00001437    0.00001897
     atom   55 type  1   force =     0.00001358   -0.00000665    0.00002239
     atom   56 type  1   force =     0.00001330   -0.00000730    0.00000728
     atom   57 type  1   force =     0.00002184   -0.00001525    0.00000001
     atom   58 type  1   force =     0.00002368   -0.00001197    0.00000001
     atom   59 type  1   force =     0.00001272   -0.00001897    0.00001436
     atom   60 type  1   force =     0.00001329   -0.00000727   -0.00000729
[...]
     atom  103 type  1   force =     0.00000030   -0.00000979   -0.00001034
     atom  104 type  1   force =     0.00001350    0.00000433   -0.00002496
     atom  105 type  1   force =     0.00001350   -0.00002497   -0.00000435
     atom  106 type  1   force =     0.00001291   -0.00001936   -0.00000000
     atom  107 type  1   force =     0.00001349   -0.00002497    0.00000434
     atom  108 type  1   force =     0.00000002   -0.00000037   -0.00000000
     atom  109 type  1   force =     0.00000002    0.00000001   -0.00000037
     atom  110 type  1   force =    -0.00001194   -0.00000170   -0.00000171
     atom  111 type  1   force =    -0.00001125    0.00000000    0.00000001
     atom  112 type  1   force =    -0.00001193   -0.00000170    0.00000171
     atom  113 type  1   force =     0.00000001   -0.00000000    0.00000036
     atom  114 type  1   force =    -0.00001195    0.00000171   -0.00000171
     atom  115 type  1   force =     0.00000003    0.00000038   -0.00000001
     atom  116 type  1   force =    -0.00001194    0.00000170    0.00000171
     atom  117 type  2   force =     0.00000009   -0.00000000   -0.00000000

     Total force =     0.003555     Total SCF correction =     0.000255
     Energy error            =      3.5E-05 Ry
     Gradient error          =      9.2E-04 Ry/Bohr

     bfgs converged in  14 scf cycles and  13 bfgs steps
     (criteria: energy <  1.0E-04 Ry, force <  1.0E-03 Ry/Bohr)

     End of BFGS Geometry Optimization

     Final energy             =  -24449.0205424052 Ry

     File ./out/calc.bfgs deleted, as requested
Begin final coordinates

ATOMIC_POSITIONS (angstrom)
Pt              -5.7874415913       -3.8446881577       -0.0000000000
Pt              -3.8341841129       -5.7918719824       -0.0000000000
Pt              -4.0486886345       -4.0445575533       -2.1156607753
Pt              -4.0486886345       -4.0445575533        2.1156607753
Pt              -5.7874415913        0.0000000000       -3.8446881577
Pt              -4.0486886345       -2.1156607753       -4.0445575533
Pt              -3.8341841129        0.0000000000       -5.7918719824
Pt              -5.8354420256       -1.9464682812       -1.9464682812
Pt              -6.1092119186        0.0000000000        0.0000000000
Pt              -3.8887834923       -1.9488093817       -0.0000000000
Pt              -3.8887834923       -0.0000000000       -1.9488093817
Pt              -5.8354420256       -1.9464682812        1.9464682812
Pt              -5.7874415913       -0.0000000000        3.8446881577
Pt              -4.0486886345       -2.1156607753        4.0445575533
Pt              -3.8887834923        0.0000000000        1.9488093817
Pt              -3.8341841129       -0.0000000000        5.7918719824
Pt              -4.0486886345        2.1156607753       -4.0445575533
Pt              -5.8354420256        1.9464682812       -1.9464682812
Pt              -5.7874415913        3.8446881577        0.0000000000
Pt              -3.8887834923        1.9488093817        0.0000000000
Pt              -4.0486886345        4.0445575533       -2.1156607753
Pt              -5.8354420256        1.9464682812        1.9464682812
Pt              -4.0486886345        2.1156607753        4.0445575533
Pt              -4.0486886345        4.0445575533        2.1156607753
Pt              -3.8341841129        5.7918719824        0.0000000000
Pt              -2.1243178282       -4.0449601916       -4.0449601916
Pt              -0.0004260023       -5.7872337777       -3.8377104998
Pt              -0.0004260023       -3.8377104998       -5.7872337777
Pt              -1.9505513082       -5.8369444797       -1.9509973471
Pt              -1.9629215583       -3.8794023394       -0.0000000000
Pt               0.0040316602       -5.9176783649       -0.0000000000
Pt              -0.0008945885       -3.8754237712       -1.9690564879
Pt              -1.9505513082       -5.8369444797        1.9509973471
Pt              -2.1243178282       -4.0449601916        4.0449601916
Pt              -0.0004260023       -5.7872337777        3.8377104998
Pt              -0.0008945885       -3.8754237712        1.9690564879
Pt              -0.0004260023       -3.8377104998        5.7872337777
Pt              -1.9505513082       -1.9509973471       -5.8369444797
Pt              -1.9629215583        0.0000000000       -3.8794023394
Pt              -0.0008945885       -1.9690564879       -3.8754237712
Pt               0.0040316602       -0.0000000000       -5.9176783649
Pt              -2.0345938549       -2.0254695304       -2.0254695304
Pt              -1.9505764537        0.0000000000        0.0000000000
Pt               0.0036077957       -1.9643728828       -0.0000000000
Pt               0.0036077957       -0.0000000000       -1.9643728828
Pt              -2.0345938549       -2.0254695304        2.0254695304
Pt              -1.9629215583       -0.0000000000        3.8794023394
Pt              -0.0008945885       -1.9690564879        3.8754237712
Pt               0.0036077957        0.0000000000        1.9643728828
Pt              -1.9505513082       -1.9509973471        5.8369444797
Pt               0.0040316602        0.0000000000        5.9176783649
Pt              -1.9505513082        1.9509973471       -5.8369444797
Pt              -2.1243178282        4.0449601916       -4.0449601916
Pt              -0.0008945885        1.9690564879       -3.8754237712
Pt              -0.0004260023        3.8377104998       -5.7872337777
Pt              -2.0345938549        2.0254695304       -2.0254695304
Pt              -1.9629215583        3.8794023394        0.0000000000
Pt               0.0036077957        1.9643728828        0.0000000000
Pt              -0.0008945885        3.8754237712       -1.9690564879
Pt              -2.0345938549        2.0254695304        2.0254695304
[...]
Pt               4.0533780840        4.0520781379        2.1247133696
Pt               1.9518869408        1.9495143012        5.8352138638
Pt               1.9518869408        5.8352138638       -1.9495143012
Pt               3.8430804118        5.7884969946        0.0000000000
Pt               1.9518869408        5.8352138638        1.9495143012
Pt               5.7910130576       -3.8411382262        0.0000000000
Pt               5.7910130576       -0.0000000000       -3.8411382262
Pt               5.8352948769       -1.9499505914       -1.9499505914
Pt               5.9226384286        0.0000000000        0.0000000000
Pt               5.8352948769       -1.9499505914        1.9499505914
Pt               5.7910130576        0.0000000000        3.8411382262
Pt               5.8352948769        1.9499505914       -1.9499505914
Pt               5.7910130576        3.8411382262       -0.0000000000
Pt               5.8352948769        1.9499505914        1.9499505914
H               -7.6726668219        0.0000000000        0.0000000000
End final coordinates

     Writing all to output data dir ./out/calc.save/ :
     XML data file, charge density, pseudopotentials, collected wavefunctions

     General routines

     Parallel routines

   This run was terminated on:   2:24:15   5May2025

   JOB DONE.