     Program PWSCF v.7.3.1 starts on 17Jan2025 at  7:51:37

     Reading input from espresso.pwi
Warning: card   &CELL ignored
Warning: card      CELL_DOFREE = 'IBRAV' ignored
Warning: card / ignored

     Current dimensions of program PWSCF are:
     Max number of different atomic species (ntypx) = 10
     Max number of k-points (npk) =  40000
     Max angular momentum in pseudopotentials (lmaxx) =  4

     IMPORTANT: XC functional enforced from input :
     Exchange-correlation= RVV10
                           (   1   4  13   4  26   0   0)
     Any further DFT definition will be discarded
     Please, verify this is what you really want

     gamma-point specific algorithms are used
     Message from routine setup:
     using ibrav=0 with symmetry is DISCOURAGED, use correct ibrav instead

     R & G space division:  proc/nbgrp/npool/nimage =      36
     Subspace diagonalization in iterative solution of the eigenvalue problem:
     one sub-group per band group will be used

     Using Slab Decomposition

     Title:
     calc

     bravais-lattice index     =            0
     lattice parameter (alat)  =      34.0151  a.u.
     unit-cell volume          =   39356.2868 (a.u.)^3
     number of atoms/cell      =           56
     number of atomic types    =            2
     number of electrons       =       881.00
     number of Kohn-Sham states=          529
     kinetic-energy cutoff     =      60.0000  Ry
     charge density cutoff     =     480.0000  Ry
     scf convergence threshold =      1.0E-06
     mixing beta               =       0.2000
     number of iterations used =            8  plain     mixing
     energy convergence thresh.=      1.0E-04
     force convergence thresh. =      1.0E-03
     Exchange-correlation= RVV10
                           (   1   4  13   4  26   0   0)
     nstep                     =        10000

     celldm(1)=  34.015070  celldm(2)=   0.000000  celldm(3)=   0.000000
     celldm(4)=   0.000000  celldm(5)=   0.000000  celldm(6)=   0.000000

     crystal axes: (cart. coord. in units of alat)
               a(1) = (   1.000000   0.000000   0.000000 )
               a(2) = (   0.000000   1.000000   0.000000 )
               a(3) = (   0.000000   0.000000   1.000000 )

     reciprocal axes: (cart. coord. in units 2 pi/alat)
               b(1) = (  1.000000  0.000000  0.000000 )
               b(2) = (  0.000000  1.000000  0.000000 )
               b(3) = (  0.000000  0.000000  1.000000 )

     PseudoPot. # 1 for Pt read from file:
     /home/james/work/espresso/SSSP_1.3.0_PBE_efficiency/pt_pbe_v1.4.uspp.F.UPF
     MD5 check sum: f09d6de1a584b5a045c4fc126da2d0c4
     Pseudo is Ultrasoft + core correction, Zval = 16.0
     Generated by new atomic code, or converted to UPF format
     Using radial grid of  985 points,  6 beta functions with:
                l(1) =   0
                l(2) =   0
                l(3) =   1
                l(4) =   1
                l(5) =   2
                l(6) =   2
     Q(r) pseudized with  8 coefficients,  rinner =    1.300   1.300   1.300
                                                       1.300   1.300

     PseudoPot. # 2 for H  read from file:
     /home/james/work/espresso/SSSP_1.3.0_PBE_efficiency/H.pbe-rrkjus_psl.1.0.0.UPF
     MD5 check sum: f52b6d4d1c606e5624b1dc7b2218f220
     Pseudo is Ultrasoft, Zval =  1.0
     Generated using "atomic" code by A. Dal Corso  v.5.1
     Using radial grid of  929 points,  2 beta functions with:
                l(1) =   0
                l(2) =   0
     Q(r) pseudized with 0 coefficients

     atomic species   valence    mass     pseudopotential
     Pt               16.00   195.08400     Pt( 1.00)
     H                 1.00     1.00800     H ( 1.00)

     Starting magnetic structure
     atomic species   magnetization
     Pt              0.010
     H               0.020

      8 Sym. Ops. (no inversion) found

                                    s                        frac. trans.

      isym =  1     identity

 cryst.   s( 1) = (     1          0          0      )
                  (     0          1          0      )
                  (     0          0          1      )

 cart.    s( 1) = (  1.0000000  0.0000000  0.0000000 )
                  (  0.0000000  1.0000000  0.0000000 )
                  (  0.0000000  0.0000000  1.0000000 )

      isym =  2     180 deg rotation - cart. axis [1,0,0]

[...]

      isym =  4      90 deg rotation - cart. axis [1,0,0]

[...]

      isym =  5     inv. 180 deg rotation - cart. axis [0,0,1]

[...]

      isym =  8     inv. 180 deg rotation - cart. axis [0,1,-1]

 cryst.   s( 8) = (     1          0          0      )
                  (     0          0          1      )
                  (     0          1          0      )

 cart.    s( 8) = (  1.0000000  0.0000000  0.0000000 )
                  (  0.0000000  0.0000000  1.0000000 )
                  (  0.0000000  1.0000000  0.0000000 )

   Cartesian axes

     site n.     atom                  positions (alat units)
         1        Pt     tau(   1) = (  -0.2177778  -0.1088889  -0.1088889  )
         2        Pt     tau(   2) = (  -0.1088889  -0.2177778  -0.1088889  )
         3        Pt     tau(   3) = (  -0.1088889  -0.1088889  -0.2177778  )
         4        Pt     tau(   4) = (  -0.2177778  -0.2177778   0.0000000  )
         5        Pt     tau(   5) = (  -0.2177778  -0.1088889   0.1088889  )
         6        Pt     tau(   6) = (  -0.1088889  -0.2177778   0.1088889  )
         7        Pt     tau(   7) = (  -0.1088889  -0.1088889   0.0000000  )
         8        Pt     tau(   8) = (  -0.1088889  -0.1088889   0.2177778  )
         9        Pt     tau(   9) = (  -0.2177778   0.0000000  -0.2177778  )
        10        Pt     tau(  10) = (  -0.2177778   0.1088889  -0.1088889  )
        11        Pt     tau(  11) = (  -0.1088889   0.0000000  -0.1088889  )
        12        Pt     tau(  12) = (  -0.1088889   0.1088889  -0.2177778  )
        13        Pt     tau(  13) = (  -0.2177778   0.0000000   0.0000000  )
        14        Pt     tau(  14) = (  -0.2177778   0.1088889   0.1088889  )
        15        Pt     tau(  15) = (  -0.1088889   0.0000000   0.1088889  )
        16        Pt     tau(  16) = (  -0.1088889   0.1088889   0.0000000  )
        17        Pt     tau(  17) = (  -0.2177778   0.0000000   0.2177778  )
        18        Pt     tau(  18) = (  -0.1088889   0.1088889   0.2177778  )
        19        Pt     tau(  19) = (  -0.1088889   0.2177778  -0.1088889  )
        20        Pt     tau(  20) = (  -0.2177778   0.2177778   0.0000000  )
        21        Pt     tau(  21) = (  -0.1088889   0.2177778   0.1088889  )
        22        Pt     tau(  22) = (   0.0000000  -0.2177778  -0.2177778  )
        23        Pt     tau(  23) = (   0.0000000  -0.1088889  -0.1088889  )
        24        Pt     tau(  24) = (   0.1088889  -0.2177778  -0.1088889  )
        25        Pt     tau(  25) = (   0.1088889  -0.1088889  -0.2177778  )
        26        Pt     tau(  26) = (   0.0000000  -0.2177778   0.0000000  )
        27        Pt     tau(  27) = (   0.0000000  -0.1088889   0.1088889  )
        28        Pt     tau(  28) = (   0.1088889  -0.2177778   0.1088889  )
        29        Pt     tau(  29) = (   0.1088889  -0.1088889   0.0000000  )
        30        Pt     tau(  30) = (   0.0000000  -0.2177778   0.2177778  )
        31        Pt     tau(  31) = (   0.1088889  -0.1088889   0.2177778  )
        32        Pt     tau(  32) = (   0.0000000   0.0000000  -0.2177778  )
        33        Pt     tau(  33) = (   0.0000000   0.1088889  -0.1088889  )
        34        Pt     tau(  34) = (   0.1088889   0.0000000  -0.1088889  )
        35        Pt     tau(  35) = (   0.1088889   0.1088889  -0.2177778  )
        36        Pt     tau(  36) = (   0.0000000   0.0000000   0.0000000  )
        37        Pt     tau(  37) = (   0.0000000   0.1088889   0.1088889  )
        38        Pt     tau(  38) = (   0.1088889   0.0000000   0.1088889  )
        39        Pt     tau(  39) = (   0.1088889   0.1088889   0.0000000  )
        40        Pt     tau(  40) = (   0.0000000   0.0000000   0.2177778  )
        41        Pt     tau(  41) = (   0.1088889   0.1088889   0.2177778  )
        42        Pt     tau(  42) = (   0.0000000   0.2177778  -0.2177778  )
        43        Pt     tau(  43) = (   0.1088889   0.2177778  -0.1088889  )
        44        Pt     tau(  44) = (   0.0000000   0.2177778   0.0000000  )
        45        Pt     tau(  45) = (   0.1088889   0.2177778   0.1088889  )
        46        Pt     tau(  46) = (   0.0000000   0.2177778   0.2177778  )
        47        Pt     tau(  47) = (   0.2177778  -0.1088889  -0.1088889  )
        48        Pt     tau(  48) = (   0.2177778  -0.2177778   0.0000000  )
        49        Pt     tau(  49) = (   0.2177778  -0.1088889   0.1088889  )
        50        Pt     tau(  50) = (   0.2177778   0.0000000  -0.2177778  )
        51        Pt     tau(  51) = (   0.2177778   0.1088889  -0.1088889  )
        52        Pt     tau(  52) = (   0.2177778   0.0000000   0.0000000  )
        53        Pt     tau(  53) = (   0.2177778   0.1088889   0.1088889  )
        54        Pt     tau(  54) = (   0.2177778   0.0000000   0.2177778  )
        55        Pt     tau(  55) = (   0.2177778   0.2177778   0.0000000  )
        56        H      tau(  56) = (  -0.3177778   0.0000000   0.0000000  )

   Crystallographic axes

     site n.     atom                  positions (cryst. coord.)
         1        Pt     tau(   1) = ( -0.2177778 -0.1088889 -0.1088889  )
         2        Pt     tau(   2) = ( -0.1088889 -0.2177778 -0.1088889  )
         3        Pt     tau(   3) = ( -0.1088889 -0.1088889 -0.2177778  )
         4        Pt     tau(   4) = ( -0.2177778 -0.2177778  0.0000000  )
         5        Pt     tau(   5) = ( -0.2177778 -0.1088889  0.1088889  )
         6        Pt     tau(   6) = ( -0.1088889 -0.2177778  0.1088889  )
         7        Pt     tau(   7) = ( -0.1088889 -0.1088889  0.0000000  )
         8        Pt     tau(   8) = ( -0.1088889 -0.1088889  0.2177778  )
         9        Pt     tau(   9) = ( -0.2177778  0.0000000 -0.2177778  )
        10        Pt     tau(  10) = ( -0.2177778  0.1088889 -0.1088889  )
        11        Pt     tau(  11) = ( -0.1088889  0.0000000 -0.1088889  )
        12        Pt     tau(  12) = ( -0.1088889  0.1088889 -0.2177778  )
        13        Pt     tau(  13) = ( -0.2177778  0.0000000  0.0000000  )
        14        Pt     tau(  14) = ( -0.2177778  0.1088889  0.1088889  )
        15        Pt     tau(  15) = ( -0.1088889  0.0000000  0.1088889  )
        16        Pt     tau(  16) = ( -0.1088889  0.1088889  0.0000000  )
        17        Pt     tau(  17) = ( -0.2177778  0.0000000  0.2177778  )
        18        Pt     tau(  18) = ( -0.1088889  0.1088889  0.2177778  )
        19        Pt     tau(  19) = ( -0.1088889  0.2177778 -0.1088889  )
        20        Pt     tau(  20) = ( -0.2177778  0.2177778  0.0000000  )
        21        Pt     tau(  21) = ( -0.1088889  0.2177778  0.1088889  )
        22        Pt     tau(  22) = (  0.0000000 -0.2177778 -0.2177778  )
[...]
     atom   12 type  1   force =     0.00886242   -0.00764682    0.02485622
     atom   13 type  1   force =     0.03462963    0.00000000    0.00000004
     atom   14 type  1   force =     0.02478497   -0.00813254   -0.00813250
     atom   15 type  1   force =    -0.00236874    0.00000003    0.00773879
     atom   16 type  1   force =    -0.00236866    0.00773874    0.00000003
     atom   17 type  1   force =     0.01266416   -0.00000000   -0.01308818
     atom   18 type  1   force =     0.00886229   -0.00764669   -0.02485582
     atom   19 type  1   force =     0.00886238   -0.02485604    0.00764673
     atom   20 type  1   force =     0.01266436   -0.01308845   -0.00000002
     atom   21 type  1   force =     0.00886232   -0.02485585   -0.00764669
     atom   22 type  1   force =     0.00050164    0.01234973    0.01234964
     atom   23 type  1   force =     0.00033385   -0.00462634   -0.00462638
     atom   24 type  1   force =    -0.00886826    0.02532347    0.00840795
     atom   25 type  1   force =    -0.00886825    0.00840801    0.02532344
     atom   26 type  1   force =     0.00111997    0.02988287   -0.00000005
     atom   27 type  1   force =     0.00033379   -0.00462626    0.00462626
     atom   28 type  1   force =    -0.00886831    0.02532366   -0.00840807
     atom   29 type  1   force =     0.00461893   -0.00464232   -0.00000007
     atom   30 type  1   force =     0.00050163    0.01235026   -0.01235020
     atom   31 type  1   force =    -0.00886835    0.00840811   -0.02532384
     atom   32 type  1   force =     0.00111999   -0.00000004    0.02988282
     atom   33 type  1   force =     0.00033385    0.00462625   -0.00462628
     atom   34 type  1   force =     0.00461898   -0.00000001   -0.00464240
     atom   35 type  1   force =    -0.00886829   -0.00840808    0.02532363
     atom   36 type  1   force =    -0.00038913    0.00000000   -0.00000002
     atom   37 type  1   force =     0.00033380    0.00462636    0.00462635
     atom   38 type  1   force =     0.00461889    0.00000003    0.00464227
     atom   39 type  1   force =     0.00461891    0.00464232   -0.00000003
     atom   40 type  1   force =     0.00111993    0.00000004   -0.02988283
     atom   41 type  1   force =    -0.00886832   -0.00840804   -0.02532364
     atom   42 type  1   force =     0.00050162   -0.01235033    0.01235026
     atom   43 type  1   force =    -0.00886831   -0.02532369    0.00840803
     atom   44 type  1   force =     0.00111997   -0.02988287    0.00000003
     atom   45 type  1   force =    -0.00886830   -0.02532350   -0.00840801
     atom   46 type  1   force =     0.00050162   -0.01234971   -0.01234966
     atom   47 type  1   force =    -0.02538535    0.00829885    0.00829878
     atom   48 type  1   force =    -0.01252122    0.01256058   -0.00000000
     atom   49 type  1   force =    -0.02538559    0.00829890   -0.00829889
     atom   50 type  1   force =    -0.01252111    0.00000001    0.01256041
     atom   51 type  1   force =    -0.02538544   -0.00829885    0.00829880
     atom   52 type  1   force =    -0.03062710    0.00000001   -0.00000006
     atom   53 type  1   force =    -0.02538563   -0.00829890   -0.00829890
     atom   54 type  1   force =    -0.01252174   -0.00000001   -0.01256105
     atom   55 type  1   force =    -0.01252131   -0.01256067   -0.00000003
     atom   56 type  2   force =     0.00000000    0.00000000    0.00000000
     The Hubbard contrib.    to forces
     atom    1 type  1   force =     0.00000000    0.00000000    0.00000000
     atom    2 type  1   force =     0.00000000    0.00000000    0.00000000
     atom    3 type  1   force =     0.00000000    0.00000000    0.00000000
     atom    4 type  1   force =     0.00000000    0.00000000    0.00000000
     atom    5 type  1   force =     0.00000000    0.00000000    0.00000000
     atom    6 type  1   force =     0.00000000    0.00000000    0.00000000
     atom    7 type  1   force =     0.00000000    0.00000000    0.00000000
     atom    8 type  1   force =     0.00000000    0.00000000    0.00000000
     atom    9 type  1   force =     0.00000000    0.00000000    0.00000000
     atom   10 type  1   force =     0.00000000    0.00000000    0.00000000
     atom   11 type  1   force =     0.00000000    0.00000000    0.00000000
     atom   12 type  1   force =     0.00000000    0.00000000    0.00000000
     atom   13 type  1   force =     0.00000000    0.00000000    0.00000000
     atom   14 type  1   force =     0.00000000    0.00000000    0.00000000
     atom   15 type  1   force =     0.00000000    0.00000000    0.00000000
     atom   16 type  1   force =     0.00000000    0.00000000    0.00000000
     atom   17 type  1   force =     0.00000000    0.00000000    0.00000000
     atom   18 type  1   force =     0.00000000    0.00000000    0.00000000
     atom   19 type  1   force =     0.00000000    0.00000000    0.00000000
     atom   20 type  1   force =     0.00000000    0.00000000    0.00000000
     atom   21 type  1   force =     0.00000000    0.00000000    0.00000000
     atom   22 type  1   force =     0.00000000    0.00000000    0.00000000
     atom   23 type  1   force =     0.00000000    0.00000000    0.00000000
     atom   24 type  1   force =     0.00000000    0.00000000    0.00000000
     atom   25 type  1   force =     0.00000000    0.00000000    0.00000000
     atom   26 type  1   force =     0.00000000    0.00000000    0.00000000
     atom   27 type  1   force =     0.00000000    0.00000000    0.00000000
     atom   28 type  1   force =     0.00000000    0.00000000    0.00000000
     atom   29 type  1   force =     0.00000000    0.00000000    0.00000000
     atom   30 type  1   force =     0.00000000    0.00000000    0.00000000
     atom   31 type  1   force =     0.00000000    0.00000000    0.00000000
     atom   32 type  1   force =     0.00000000    0.00000000    0.00000000
     atom   33 type  1   force =     0.00000000    0.00000000    0.00000000
     atom   34 type  1   force =     0.00000000    0.00000000    0.00000000
     atom   35 type  1   force =     0.00000000    0.00000000    0.00000000
     atom   36 type  1   force =     0.00000000    0.00000000    0.00000000
     atom   37 type  1   force =     0.00000000    0.00000000    0.00000000
     atom   38 type  1   force =     0.00000000    0.00000000    0.00000000
     atom   39 type  1   force =     0.00000000    0.00000000    0.00000000
     atom   40 type  1   force =     0.00000000    0.00000000    0.00000000
     atom   41 type  1   force =     0.00000000    0.00000000    0.00000000
     atom   42 type  1   force =     0.00000000    0.00000000    0.00000000
     atom   43 type  1   force =     0.00000000    0.00000000    0.00000000
     atom   44 type  1   force =     0.00000000    0.00000000    0.00000000
     atom   45 type  1   force =     0.00000000    0.00000000    0.00000000
     atom   46 type  1   force =     0.00000000    0.00000000    0.00000000
     atom   47 type  1   force =     0.00000000    0.00000000    0.00000000
     atom   48 type  1   force =     0.00000000    0.00000000    0.00000000
     atom   49 type  1   force =     0.00000000    0.00000000    0.00000000
     atom   50 type  1   force =     0.00000000    0.00000000    0.00000000
     atom   51 type  1   force =     0.00000000    0.00000000    0.00000000
     atom   52 type  1   force =     0.00000000    0.00000000    0.00000000
     atom   53 type  1   force =     0.00000000    0.00000000    0.00000000
     atom   54 type  1   force =     0.00000000    0.00000000    0.00000000
     atom   55 type  1   force =     0.00000000    0.00000000    0.00000000
     atom   56 type  2   force =     0.00000000    0.00000000    0.00000000
     The SCF correction term to forces
     atom    1 type  1   force =     0.00003101   -0.00005724    0.00001190
     atom    2 type  1   force =     0.00005956   -0.00002949    0.00001019
     atom    3 type  1   force =     0.00006780   -0.00005053   -0.00000721
     atom    4 type  1   force =     0.00003812   -0.00003273    0.00000898
     atom    5 type  1   force =     0.00002935   -0.00000423    0.00003445
     atom    6 type  1   force =     0.00000973   -0.00001187   -0.00002855
     atom    7 type  1   force =     0.00004078   -0.00004470    0.00001472
     atom    8 type  1   force =    -0.00001581    0.00003272    0.00000207
     atom    9 type  1   force =     0.00001174   -0.00001856   -0.00003098
     atom   10 type  1   force =     0.00001111    0.00004226    0.00003071
     atom   11 type  1   force =     0.00006261   -0.00002798    0.00002043
     atom   12 type  1   force =     0.00003559    0.00000395   -0.00001781
     atom   13 type  1   force =     0.00005263    0.00000236    0.00005591
     atom   14 type  1   force =     0.00004967    0.00002250    0.00004891
     atom   15 type  1   force =     0.00000664    0.00002996    0.00004596
     atom   16 type  1   force =     0.00003621    0.00004528    0.00007263
     atom   17 type  1   force =     0.00003233    0.00001963    0.00001317
     atom   18 type  1   force =     0.00001057    0.00001079   -0.00001088
     atom   19 type  1   force =     0.00002449    0.00003969    0.00005768
     atom   20 type  1   force =     0.00003787    0.00003095    0.00004716
     atom   21 type  1   force =     0.00003324   -0.00000149    0.00001408
     atom   22 type  1   force =     0.00001912    0.00000075    0.00003002
     atom   23 type  1   force =     0.00001868   -0.00006667   -0.00002223
     atom   24 type  1   force =    -0.00002035   -0.00000779   -0.00000840
     atom   25 type  1   force =     0.00000263   -0.00001883    0.00000563
     atom   26 type  1   force =    -0.00000341   -0.00002056   -0.00004047
     atom   27 type  1   force =    -0.00005854   -0.00001617   -0.00001540
     atom   28 type  1   force =    -0.00001674   -0.00004260   -0.00005518
     atom   29 type  1   force =    -0.00002336   -0.00006884   -0.00006315
     atom   30 type  1   force =    -0.00003427   -0.00000717   -0.00001650
     atom   31 type  1   force =    -0.00002772    0.00000000    0.00002221
     atom   32 type  1   force =     0.00004507   -0.00004647   -0.00001393
     atom   33 type  1   force =     0.00000885    0.00001524    0.00002536
     atom   34 type  1   force =     0.00000662   -0.00003818   -0.00005513
     atom   35 type  1   force =     0.00002801   -0.00003429   -0.00001134
     atom   36 type  1   force =    -0.00004154   -0.00000191    0.00000781
     atom   37 type  1   force =    -0.00006256    0.00005845    0.00003073
     atom   38 type  1   force =    -0.00005076    0.00002622    0.00000929
     atom   39 type  1   force =    -0.00002924    0.00005907    0.00000123
     atom   40 type  1   force =    -0.00006077    0.00004145    0.00001149
     atom   41 type  1   force =    -0.00005554    0.00004197    0.00001228
     atom   42 type  1   force =     0.00001104    0.00001254    0.00001494
     atom   43 type  1   force =     0.00000174    0.00002259    0.00003562
     atom   44 type  1   force =    -0.00001316    0.00002052    0.00004742
     atom   45 type  1   force =    -0.00004783    0.00003052   -0.00000410
     atom   46 type  1   force =    -0.00003575   -0.00000634   -0.00002816
     atom   47 type  1   force =    -0.00001095   -0.00003300   -0.00004542
     atom   48 type  1   force =    -0.00001335   -0.00003113   -0.00004508
     atom   49 type  1   force =     0.00002285   -0.00004383   -0.00002218
     atom   50 type  1   force =    -0.00000160   -0.00002703   -0.00001411
     atom   51 type  1   force =     0.00001341    0.00000522   -0.00003004
     atom   52 type  1   force =     0.00002222   -0.00000738   -0.00004764
     atom   53 type  1   force =     0.00000368    0.00005435    0.00000074
     atom   54 type  1   force =     0.00000981    0.00001839    0.00003008
     atom   55 type  1   force =    -0.00001017    0.00003256    0.00000035
     atom   56 type  2   force =    -0.00000504    0.00000007    0.00000198

     Total force =     0.003333     Total SCF correction =     0.000419
     SCF correction compared to forces is large: reduce conv_thr to get better values
     Energy error            =      3.0E-05 Ry
     Gradient error          =      9.0E-04 Ry/Bohr

     bfgs converged in  21 scf cycles and  20 bfgs steps
     (criteria: energy <  1.0E-04 Ry, force <  1.0E-03 Ry/Bohr)

     End of BFGS Geometry Optimization

     Final energy             =  -11591.5427425267 Ry

     File ./out/calc.bfgs deleted, as requested
Begin final coordinates

ATOMIC_POSITIONS (angstrom)
Pt              -3.9081471412       -1.8949266998       -1.8949266998
Pt              -1.8908275380       -3.9428870418       -1.9130889083
Pt              -1.8908275380       -1.9130889083       -3.9428870418
Pt              -3.7794287984       -3.8209676860        0.0000000000
Pt              -3.9081471412       -1.8949266998        1.8949266998
Pt              -1.8908275380       -3.9428870418        1.9130889083
Pt              -1.9236124164       -1.9237974706       -0.0000000000
Pt              -1.8908275380       -1.9130889083        3.9428870418
Pt              -3.7794287984        0.0000000000       -3.8209676860
Pt              -3.9081471412        1.8949266998       -1.8949266998
Pt              -1.9236124164        0.0000000000       -1.9237974706
Pt              -1.8908275380        1.9130889083       -3.9428870418
Pt              -4.3836839801        0.0000000000        0.0000000000
Pt              -3.9081471412        1.8949266998        1.8949266998
Pt              -1.9236124164       -0.0000000000        1.9237974706
Pt              -1.9236124164        1.9237974706        0.0000000000
Pt              -3.7794287984       -0.0000000000        3.8209676860
Pt              -1.8908275380        1.9130889083        3.9428870418
Pt              -1.8908275380        3.9428870418       -1.9130889083
Pt              -3.7794287984        3.8209676860       -0.0000000000
Pt              -1.8908275380        3.9428870418        1.9130889083
Pt               0.0066244704       -3.8152286472       -3.8152286472
Pt              -0.0028780727       -1.9262550080       -1.9262550080
Pt               1.9096773146       -3.9340709453       -1.9132292846
Pt               1.9096773146       -1.9132292846       -3.9340709453
Pt               0.0157348288       -4.1641168780       -0.0000000000
Pt              -0.0028780727       -1.9262550080        1.9262550080
Pt               1.9096773146       -3.9340709453        1.9132292846
Pt               1.9235068371       -1.9279958930       -0.0000000000
Pt               0.0066244704       -3.8152286472        3.8152286472
Pt               1.9096773146       -1.9132292846        3.9340709453
Pt               0.0157348288        0.0000000000       -4.1641168780
Pt              -0.0028780727        1.9262550080       -1.9262550080
Pt               1.9235068371        0.0000000000       -1.9279958930
Pt               1.9096773146        1.9132292846       -3.9340709453
Pt               0.0014347503        0.0000000000        0.0000000000
Pt              -0.0028780727        1.9262550080        1.9262550080
Pt               1.9235068371       -0.0000000000        1.9279958930
Pt               1.9235068371        1.9279958930        0.0000000000
Pt               0.0157348288       -0.0000000000        4.1641168780
Pt               1.9096773146        1.9132292846        3.9340709453
Pt               0.0066244704        3.8152286472       -3.8152286472
Pt               1.9096773146        3.9340709453       -1.9132292846
Pt               0.0157348288        4.1641168780        0.0000000000
Pt               1.9096773146        3.9340709453        1.9132292846
Pt               0.0066244704        3.8152286472        3.8152286472
Pt               3.9333250594       -1.9083579203       -1.9083579203
Pt               3.8077205778       -3.8067755090       -0.0000000000
Pt               3.9333250594       -1.9083579203        1.9083579203
Pt               3.8077205778       -0.0000000000       -3.8067755090
Pt               3.9333250594        1.9083579203       -1.9083579203
Pt               4.1511446091        0.0000000000        0.0000000000
Pt               3.9333250594        1.9083579203        1.9083579203
Pt               3.8077205778        0.0000000000        3.8067755090
Pt               3.8077205778        3.8067755090        0.0000000000
H               -5.9310749710        0.0000000000        0.0000000000
End final coordinates

     Writing all to output data dir ./out/calc.save/ :
     XML data file, charge density, pseudopotentials, collected wavefunctions

     General routines

     Parallel routines

   This run was terminated on:   6:32:40  19Jan2025

   JOB DONE.