     Program PWSCF v.7.3.1 starts on 24Jul2025 at 20:20:31

     Reading input from espresso.pwi
Warning: card &CELL ignored
Warning: card  CELL_DOFREE = 'IBRAV', ignored
Warning: card / ignored

     Current dimensions of program PWSCF are:
     Max number of different atomic species (ntypx) = 10
     Max number of k-points (npk) =  40000
     Max angular momentum in pseudopotentials (lmaxx) =  4
     Message from routine iosys:
     restart disabled: needed files not found

     IMPORTANT: XC functional enforced from input :
     Exchange-correlation= RVV10
                           (   1   4  13   4  26   0   0)
     Any further DFT definition will be discarded
     Please, verify this is what you really want

     Atomic positions and unit cell read from directory:
     ./out/calc.save/
     Message from routine qexsd_readschema :
     xml data file ./out/calc.save/data-file-schema.xml not found
     Nothing found: using input atomic positions and unit cell

     gamma-point specific algorithms are used

     R & G space division:  proc/nbgrp/npool/nimage =      36
     Subspace diagonalization in iterative solution of the eigenvalue problem:
     one sub-group per band group will be used

     Using Slab Decomposition

     Title:
     Pt55 DRC DFT-PBE

     bravais-lattice index     =            0
     lattice parameter (alat)  =      37.7945  a.u.
     unit-cell volume          =   53986.6760 (a.u.)^3
     number of atoms/cell      =           56
     number of atomic types    =            2
     number of electrons       =       881.00
     number of Kohn-Sham states=          529
     kinetic-energy cutoff     =      60.0000  Ry
     charge density cutoff     =     480.0000  Ry
     scf convergence threshold =      1.0E-06
     mixing beta               =       0.2000
     number of iterations used =            8  plain     mixing
     energy convergence thresh.=      1.0E-04
     force convergence thresh. =      1.0E-03
     Exchange-correlation= RVV10
                           (   1   4  13   4  26   0   0)
     nstep                     =        10000

     celldm(1)=  37.794522  celldm(2)=   0.000000  celldm(3)=   0.000000
     celldm(4)=   0.000000  celldm(5)=   0.000000  celldm(6)=   0.000000

     crystal axes: (cart. coord. in units of alat)
               a(1) = (   1.000000   0.000000   0.000000 )
               a(2) = (   0.000000   1.000000   0.000000 )
               a(3) = (   0.000000   0.000000   1.000000 )

     reciprocal axes: (cart. coord. in units 2 pi/alat)
               b(1) = (  1.000000  0.000000  0.000000 )
               b(2) = (  0.000000  1.000000  0.000000 )
               b(3) = (  0.000000  0.000000  1.000000 )

     PseudoPot. # 1 for Pt read from file:
     /home/james/work/espresso/SSSP_1.3.0_PBE_efficiency/pt_pbe_v1.4.uspp.F.UPF
     MD5 check sum: f09d6de1a584b5a045c4fc126da2d0c4
     Pseudo is Ultrasoft + core correction, Zval = 16.0
     Generated by new atomic code, or converted to UPF format
     Using radial grid of  985 points,  6 beta functions with:
                l(1) =   0
                l(2) =   0
                l(3) =   1
                l(4) =   1
                l(5) =   2
                l(6) =   2
     Q(r) pseudized with  8 coefficients,  rinner =    1.300   1.300   1.300
                                                       1.300   1.300

     PseudoPot. # 2 for H  read from file:
     /home/james/work/espresso/SSSP_1.3.0_PBE_efficiency/H.pbe-rrkjus_psl.1.0.0.UPF
     MD5 check sum: f52b6d4d1c606e5624b1dc7b2218f220
     Pseudo is Ultrasoft, Zval =  1.0
     Generated using "atomic" code by A. Dal Corso  v.5.1
     Using radial grid of  929 points,  2 beta functions with:
                l(1) =   0
                l(2) =   0
     Q(r) pseudized with 0 coefficients

     atomic species   valence    mass     pseudopotential
     Pt               16.00   195.08400     Pt( 1.00)
     H                 1.00     1.00800     H ( 1.00)

     Starting magnetic structure
     atomic species   magnetization
     Pt              0.010
     H               0.000

     No symmetry found

                                    s                        frac. trans.

      isym =  1     identity

 cryst.   s( 1) = (     1          0          0      )
                  (     0          1          0      )
                  (     0          0          1      )

 cart.    s( 1) = (  1.0000000  0.0000000  0.0000000 )
                  (  0.0000000  1.0000000  0.0000000 )
                  (  0.0000000  0.0000000  1.0000000 )

   Cartesian axes

     site n.     atom                  positions (alat units)
         1        Pt     tau(   1) = (  -0.1184692  -0.1289811  -0.2146595  )
         2        Pt     tau(   2) = (   0.0879732  -0.1905563  -0.0473935  )
         3        Pt     tau(   3) = (  -0.0407954  -0.2088642  -0.0136076  )
         4        Pt     tau(   4) = (  -0.0534911  -0.0140564  -0.1170277  )
         5        Pt     tau(   5) = (  -0.1338863   0.0930485  -0.1450428  )
         6        Pt     tau(   6) = (  -0.0216487   0.0742489  -0.2224670  )
         7        Pt     tau(   7) = (  -0.1228422  -0.0003186  -0.2473079  )
         8        Pt     tau(   8) = (  -0.2193709   0.0091502   0.0852671  )
         9        Pt     tau(   9) = (   0.0332487  -0.0443171   0.0797488  )
        10        Pt     tau(  10) = (   0.0490643   0.0649223  -0.0801249  )
        11        Pt     tau(  11) = (   0.1286964   0.0142868   0.0087880  )
        12        Pt     tau(  12) = (   0.0516947  -0.1831859   0.0823583  )
        13        Pt     tau(  13) = (  -0.1824139  -0.0401985  -0.1364734  )
        14        Pt     tau(  14) = (  -0.1203394  -0.1322049   0.2271575  )
        15        Pt     tau(  15) = (  -0.1987900  -0.1171753   0.1194564  )
        16        Pt     tau(  16) = (   0.2439832   0.0269829  -0.0478417  )
        17        Pt     tau(  17) = (   0.1291423   0.1929666   0.0441357  )
        18        Pt     tau(  18) = (   0.2135598  -0.0299727  -0.1637702  )
        19        Pt     tau(  19) = (  -0.0893648   0.0523185  -0.0126911  )
        20        Pt     tau(  20) = (  -0.2080250   0.1375869   0.0577217  )
        21        Pt     tau(  21) = (  -0.1409462  -0.1648513  -0.0948211  )
        22        Pt     tau(  22) = (   0.0306188   0.2158309   0.1283915  )
        23        Pt     tau(  23) = (  -0.0038981  -0.0644102  -0.2279053  )
        24        Pt     tau(  24) = (   0.2243978  -0.0502054   0.0665406  )
        25        Pt     tau(  25) = (   0.1820945   0.0964271  -0.1408716  )
        26        Pt     tau(  26) = (   0.2264479   0.1612750  -0.0350756  )
        27        Pt     tau(  27) = (  -0.0229513   0.1709344  -0.1259021  )
        28        Pt     tau(  28) = (   0.0207124   0.0847292   0.0494645  )
        29        Pt     tau(  29) = (  -0.0882590  -0.0022267   0.1018400  )
        30        Pt     tau(  30) = (   0.1907775   0.0152478   0.1772775  )
        31        Pt     tau(  31) = (   0.1789948  -0.1737259   0.0478570  )
        32        Pt     tau(  32) = (  -0.2068087  -0.0814042  -0.0116031  )
        33        Pt     tau(  33) = (  -0.0671348  -0.0085571   0.2287301  )
        34        Pt     tau(  34) = (  -0.1498055   0.0904163   0.1729490  )
        35        Pt     tau(  35) = (  -0.0719561  -0.0785236  -0.0018603  )
        36        Pt     tau(  36) = (   0.1074455  -0.1080978  -0.1653069  )
        37        Pt     tau(  37) = (  -0.2143159   0.0476112  -0.0425252  )
        38        Pt     tau(  38) = (   0.0970606   0.0186090  -0.2042751  )
        39        Pt     tau(  39) = (   0.2152744   0.0880652   0.0720890  )
        40        Pt     tau(  40) = (  -0.1702640  -0.2033339   0.0251930  )
        41        Pt     tau(  41) = (   0.1333264  -0.1021657   0.1506856  )
        42        Pt     tau(  42) = (  -0.0758684  -0.1667120   0.1080652  )
        43        Pt     tau(  43) = (   0.0079707  -0.1220948   0.1959394  )
        44        Pt     tau(  44) = (   0.1035756   0.1872857  -0.0840180  )
        45        Pt     tau(  45) = (   0.0017203   0.2074397  -0.0000028  )
        46        Pt     tau(  46) = (  -0.1214752   0.1735622  -0.0383396  )
        47        Pt     tau(  47) = (   0.0626453  -0.0003444   0.2036670  )
        48        Pt     tau(  48) = (  -0.0911473   0.1789724   0.0937393  )
        49        Pt     tau(  49) = (   0.0820102   0.1511787  -0.2092932  )
        50        Pt     tau(  50) = (  -0.0177604   0.1051450   0.1826634  )
        51        Pt     tau(  51) = (  -0.0105208  -0.1612931  -0.1336594  )
        52        Pt     tau(  52) = (   0.1953231  -0.1018990  -0.0580435  )
        53        Pt     tau(  53) = (   0.0533890  -0.0672335  -0.0550032  )
        54        Pt     tau(  54) = (   0.1107939   0.1151121   0.1533706  )
        55        Pt     tau(  55) = (  -0.1993928  -0.0264440   0.2138168  )
        56        H      tau(  56) = (  -0.1518670  -0.1843835  -0.2772308  )

   Crystallographic axes

     site n.     atom                  positions (cryst. coord.)
         1        Pt     tau(   1) = ( -0.1184692 -0.1289811 -0.2146595  )
         2        Pt     tau(   2) = (  0.0879732 -0.1905563 -0.0473935  )
         3        Pt     tau(   3) = ( -0.0407954 -0.2088642 -0.0136076  )
         4        Pt     tau(   4) = ( -0.0534911 -0.0140564 -0.1170277  )
         5        Pt     tau(   5) = ( -0.1338863  0.0930485 -0.1450428  )
         6        Pt     tau(   6) = ( -0.0216487  0.0742489 -0.2224670  )
         7        Pt     tau(   7) = ( -0.1228422 -0.0003186 -0.2473079  )
         8        Pt     tau(   8) = ( -0.2193709  0.0091502  0.0852671  )
         9        Pt     tau(   9) = (  0.0332487 -0.0443171  0.0797488  )
        10        Pt     tau(  10) = (  0.0490643  0.0649223 -0.0801249  )
        11        Pt     tau(  11) = (  0.1286964  0.0142868  0.0087880  )
        12        Pt     tau(  12) = (  0.0516947 -0.1831859  0.0823583  )
        13        Pt     tau(  13) = ( -0.1824139 -0.0401985 -0.1364734  )
        14        Pt     tau(  14) = ( -0.1203394 -0.1322049  0.2271575  )
        15        Pt     tau(  15) = ( -0.1987900 -0.1171753  0.1194564  )
        16        Pt     tau(  16) = (  0.2439832  0.0269829 -0.0478417  )
        17        Pt     tau(  17) = (  0.1291423  0.1929666  0.0441357  )
        18        Pt     tau(  18) = (  0.2135598 -0.0299727 -0.1637702  )
        19        Pt     tau(  19) = ( -0.0893648  0.0523185 -0.0126911  )
        20        Pt     tau(  20) = ( -0.2080250  0.1375869  0.0577217  )
        21        Pt     tau(  21) = ( -0.1409462 -0.1648513 -0.0948211  )
        22        Pt     tau(  22) = (  0.0306188  0.2158309  0.1283915  )
        23        Pt     tau(  23) = ( -0.0038981 -0.0644102 -0.2279053  )
        24        Pt     tau(  24) = (  0.2243978 -0.0502054  0.0665406  )
        25        Pt     tau(  25) = (  0.1820945  0.0964271 -0.1408716  )
        26        Pt     tau(  26) = (  0.2264479  0.1612750 -0.0350756  )
        27        Pt     tau(  27) = ( -0.0229513  0.1709344 -0.1259021  )
        28        Pt     tau(  28) = (  0.0207124  0.0847292  0.0494645  )
[...]
     atom   12 type  1   force =    -0.00113025    0.01904393   -0.00803762
     atom   13 type  1   force =     0.02353716   -0.00167538    0.00469142
     atom   14 type  1   force =     0.00471880    0.00987710   -0.01463527
     atom   15 type  1   force =     0.02209958    0.01157222   -0.00123017
     atom   16 type  1   force =    -0.02376939    0.00116960    0.00223509
     atom   17 type  1   force =    -0.00662559   -0.02255581   -0.00643555
     atom   18 type  1   force =    -0.01205507    0.00505543    0.01087630
     atom   19 type  1   force =    -0.01122615    0.00673889   -0.00591075
     atom   20 type  1   force =     0.01031564   -0.00803095    0.00213449
     atom   21 type  1   force =     0.01005739    0.01750513    0.00459142
     atom   22 type  1   force =    -0.00219426   -0.01497733   -0.00854623
     atom   23 type  1   force =    -0.00720385    0.01118812    0.02234609
     atom   24 type  1   force =    -0.02285677    0.00637006   -0.00412729
     atom   25 type  1   force =    -0.02022773   -0.01421103    0.02050393
     atom   26 type  1   force =    -0.01080124   -0.01120762   -0.00193742
     atom   27 type  1   force =     0.00747065   -0.01774889    0.00690972
     atom   28 type  1   force =    -0.00159671    0.00746627    0.00438170
     atom   29 type  1   force =     0.00130855    0.00588977    0.00144034
     atom   30 type  1   force =    -0.00999934   -0.00087007   -0.01024848
     atom   31 type  1   force =    -0.00917096    0.01242557   -0.00161281
     atom   32 type  1   force =     0.01625714    0.00108344    0.00209347
     atom   33 type  1   force =    -0.00499224   -0.00364332   -0.01928186
     atom   34 type  1   force =     0.01345890   -0.01709642   -0.02069538
     atom   35 type  1   force =     0.00054832   -0.00676733   -0.00347771
     atom   36 type  1   force =    -0.00758433    0.01331378    0.01567142
     atom   37 type  1   force =     0.01868960   -0.00496004    0.00883144
     atom   38 type  1   force =    -0.00443370    0.00196276    0.01672792
     atom   39 type  1   force =    -0.01711385   -0.00781273   -0.00805384
     atom   40 type  1   force =     0.01214074    0.01305907   -0.00133678
     atom   41 type  1   force =    -0.01200469    0.01342795   -0.02242884
     atom   42 type  1   force =    -0.00413181    0.01929680    0.00061045
     atom   43 type  1   force =    -0.00608724    0.01373699   -0.01517388
     atom   44 type  1   force =    -0.00347993   -0.02036960    0.00663338
     atom   45 type  1   force =     0.00067774   -0.02042861    0.00382070
     atom   46 type  1   force =     0.01086246   -0.01997991    0.00700973
     atom   47 type  1   force =    -0.00090974   -0.00005596   -0.02007093
     atom   48 type  1   force =     0.00641875   -0.02241817   -0.00872441
     atom   49 type  1   force =    -0.00186124   -0.00864428    0.01190564
     atom   50 type  1   force =     0.00064631   -0.00767198   -0.02107457
     atom   51 type  1   force =    -0.00706714    0.02008035    0.00842453
     atom   52 type  1   force =    -0.01652111    0.01180651    0.00544386
     atom   53 type  1   force =     0.00472289   -0.01587495   -0.01293311
     atom   54 type  1   force =    -0.00844101   -0.01228496   -0.01775559
     atom   55 type  1   force =     0.01608744   -0.00074538   -0.01191441
     atom   56 type  2   force =     0.00000000    0.00000000    0.00000000
     The Hubbard contrib.    to forces
     atom    1 type  1   force =     0.00000000    0.00000000    0.00000000
     atom    2 type  1   force =     0.00000000    0.00000000    0.00000000
     atom    3 type  1   force =     0.00000000    0.00000000    0.00000000
     atom    4 type  1   force =     0.00000000    0.00000000    0.00000000
     atom    5 type  1   force =     0.00000000    0.00000000    0.00000000
     atom    6 type  1   force =     0.00000000    0.00000000    0.00000000
     atom    7 type  1   force =     0.00000000    0.00000000    0.00000000
     atom    8 type  1   force =     0.00000000    0.00000000    0.00000000
     atom    9 type  1   force =     0.00000000    0.00000000    0.00000000
     atom   10 type  1   force =     0.00000000    0.00000000    0.00000000
     atom   11 type  1   force =     0.00000000    0.00000000    0.00000000
     atom   12 type  1   force =     0.00000000    0.00000000    0.00000000
     atom   13 type  1   force =     0.00000000    0.00000000    0.00000000
     atom   14 type  1   force =     0.00000000    0.00000000    0.00000000
     atom   15 type  1   force =     0.00000000    0.00000000    0.00000000
     atom   16 type  1   force =     0.00000000    0.00000000    0.00000000
     atom   17 type  1   force =     0.00000000    0.00000000    0.00000000
     atom   18 type  1   force =     0.00000000    0.00000000    0.00000000
     atom   19 type  1   force =     0.00000000    0.00000000    0.00000000
     atom   20 type  1   force =     0.00000000    0.00000000    0.00000000
     atom   21 type  1   force =     0.00000000    0.00000000    0.00000000
     atom   22 type  1   force =     0.00000000    0.00000000    0.00000000
     atom   23 type  1   force =     0.00000000    0.00000000    0.00000000
     atom   24 type  1   force =     0.00000000    0.00000000    0.00000000
     atom   25 type  1   force =     0.00000000    0.00000000    0.00000000
     atom   26 type  1   force =     0.00000000    0.00000000    0.00000000
     atom   27 type  1   force =     0.00000000    0.00000000    0.00000000
     atom   28 type  1   force =     0.00000000    0.00000000    0.00000000
     atom   29 type  1   force =     0.00000000    0.00000000    0.00000000
     atom   30 type  1   force =     0.00000000    0.00000000    0.00000000
     atom   31 type  1   force =     0.00000000    0.00000000    0.00000000
     atom   32 type  1   force =     0.00000000    0.00000000    0.00000000
     atom   33 type  1   force =     0.00000000    0.00000000    0.00000000
     atom   34 type  1   force =     0.00000000    0.00000000    0.00000000
     atom   35 type  1   force =     0.00000000    0.00000000    0.00000000
     atom   36 type  1   force =     0.00000000    0.00000000    0.00000000
     atom   37 type  1   force =     0.00000000    0.00000000    0.00000000
     atom   38 type  1   force =     0.00000000    0.00000000    0.00000000
     atom   39 type  1   force =     0.00000000    0.00000000    0.00000000
     atom   40 type  1   force =     0.00000000    0.00000000    0.00000000
     atom   41 type  1   force =     0.00000000    0.00000000    0.00000000
     atom   42 type  1   force =     0.00000000    0.00000000    0.00000000
     atom   43 type  1   force =     0.00000000    0.00000000    0.00000000
     atom   44 type  1   force =     0.00000000    0.00000000    0.00000000
     atom   45 type  1   force =     0.00000000    0.00000000    0.00000000
     atom   46 type  1   force =     0.00000000    0.00000000    0.00000000
     atom   47 type  1   force =     0.00000000    0.00000000    0.00000000
     atom   48 type  1   force =     0.00000000    0.00000000    0.00000000
     atom   49 type  1   force =     0.00000000    0.00000000    0.00000000
     atom   50 type  1   force =     0.00000000    0.00000000    0.00000000
     atom   51 type  1   force =     0.00000000    0.00000000    0.00000000
     atom   52 type  1   force =     0.00000000    0.00000000    0.00000000
     atom   53 type  1   force =     0.00000000    0.00000000    0.00000000
     atom   54 type  1   force =     0.00000000    0.00000000    0.00000000
     atom   55 type  1   force =     0.00000000    0.00000000    0.00000000
     atom   56 type  2   force =     0.00000000    0.00000000    0.00000000
     The SCF correction term to forces
     atom    1 type  1   force =     0.00003522    0.00005888    0.00000592
     atom    2 type  1   force =    -0.00003123   -0.00000778   -0.00008679
     atom    3 type  1   force =    -0.00001465   -0.00001580   -0.00007756
     atom    4 type  1   force =    -0.00001035    0.00002463   -0.00013448
     atom    5 type  1   force =     0.00003999   -0.00003554   -0.00008630
     atom    6 type  1   force =     0.00000406   -0.00002337   -0.00000086
     atom    7 type  1   force =     0.00005223    0.00000872    0.00004117
     atom    8 type  1   force =    -0.00004526   -0.00000953   -0.00006057
     atom    9 type  1   force =    -0.00000625   -0.00000014   -0.00005841
     atom   10 type  1   force =    -0.00001364    0.00003061   -0.00013765
     atom   11 type  1   force =     0.00001241    0.00004127   -0.00009236
     atom   12 type  1   force =    -0.00001058   -0.00005524   -0.00004596
     atom   13 type  1   force =     0.00005748    0.00001077   -0.00006444
     atom   14 type  1   force =    -0.00002906   -0.00004749    0.00002708
     atom   15 type  1   force =    -0.00004482   -0.00003213   -0.00004377
     atom   16 type  1   force =     0.00000780    0.00005332   -0.00006083
     atom   17 type  1   force =     0.00003044    0.00002957   -0.00006014
     atom   18 type  1   force =    -0.00004375    0.00003844   -0.00005260
     atom   19 type  1   force =    -0.00001263   -0.00000088   -0.00013976
     atom   20 type  1   force =    -0.00003339    0.00001271   -0.00005529
     atom   21 type  1   force =     0.00001939    0.00002814   -0.00008158
     atom   22 type  1   force =     0.00003794    0.00005243   -0.00002647
     atom   23 type  1   force =    -0.00003912    0.00003768    0.00002785
     atom   24 type  1   force =     0.00004228    0.00002094   -0.00001980
     atom   25 type  1   force =    -0.00004637    0.00002751   -0.00005957
     atom   26 type  1   force =    -0.00000824    0.00001701   -0.00005733
     atom   27 type  1   force =     0.00002002   -0.00003967   -0.00008391
     atom   28 type  1   force =     0.00002317    0.00004501   -0.00008622
     atom   29 type  1   force =    -0.00001875    0.00000304   -0.00006523
     atom   30 type  1   force =     0.00004299    0.00003318    0.00001565
     atom   31 type  1   force =     0.00001323   -0.00003521   -0.00003182
     atom   32 type  1   force =    -0.00000922   -0.00000292   -0.00009031
     atom   33 type  1   force =    -0.00000732    0.00001056    0.00005325
     atom   34 type  1   force =    -0.00003910    0.00003445    0.00000919
     atom   35 type  1   force =    -0.00001688   -0.00000728   -0.00012582
     atom   36 type  1   force =    -0.00005686    0.00003188   -0.00005460
     atom   37 type  1   force =     0.00001066   -0.00001171   -0.00009625
     atom   38 type  1   force =    -0.00005581    0.00004057   -0.00003772
     atom   39 type  1   force =     0.00001624    0.00005682   -0.00004056
     atom   40 type  1   force =    -0.00001467   -0.00002021   -0.00005881
     atom   41 type  1   force =     0.00003678   -0.00002473    0.00001850
     atom   42 type  1   force =    -0.00002194   -0.00004266   -0.00004945
     atom   43 type  1   force =     0.00000918   -0.00004482    0.00002279
     atom   44 type  1   force =     0.00000224    0.00000104   -0.00008780
     atom   45 type  1   force =     0.00002374    0.00001864   -0.00008851
     atom   46 type  1   force =     0.00001872   -0.00000710   -0.00009550
     atom   47 type  1   force =     0.00003755    0.00002110    0.00004262
     atom   48 type  1   force =     0.00000038    0.00005305   -0.00004654
     atom   49 type  1   force =    -0.00001614   -0.00004471   -0.00000799
     atom   50 type  1   force =     0.00001559    0.00004514    0.00001928
     atom   51 type  1   force =    -0.00003330    0.00005108   -0.00007769
     atom   52 type  1   force =    -0.00001776    0.00000391   -0.00008343
     atom   53 type  1   force =    -0.00003414   -0.00000397   -0.00013568
     atom   54 type  1   force =     0.00004727    0.00005113   -0.00000916
     atom   55 type  1   force =    -0.00005555   -0.00000153    0.00002175
     atom   56 type  2   force =     0.00000302    0.00000439    0.00000219

     Total force =     0.003769     Total SCF correction =     0.000611
     SCF correction compared to forces is large: reduce conv_thr to get better values
     Energy error            =      3.1E-05 Ry
     Gradient error          =      9.0E-04 Ry/Bohr

     bfgs converged in  36 scf cycles and  35 bfgs steps
     (criteria: energy <  1.0E-04 Ry, force <  1.0E-03 Ry/Bohr)

     End of BFGS Geometry Optimization

     Final energy             =  -11591.9871995468 Ry

     File ./out/calc.bfgs deleted, as requested
Begin final coordinates

ATOMIC_POSITIONS (angstrom)
Pt              -2.3856565276       -2.5556675872       -4.3682929487
Pt               1.7751216089       -3.8336147226       -1.0049020520
Pt              -0.8212358624       -4.2007483877       -0.3499406032
Pt              -1.1205234754       -0.4830826566       -2.4647173834
Pt              -2.6320305687        1.8479711883       -2.9177920054
Pt              -0.3984753240        1.5093939737       -4.4802326198
Pt              -2.4431360152        0.0217956631       -5.0036161218
Pt              -4.4180765850        0.1996464522        1.7140286018
Pt               0.6699848040       -0.8649829468        1.6259328793
Pt               0.9404531624        1.2817561857       -1.6096589477
Pt               2.5734975261        0.2763034273        0.1682796710
Pt               1.0337633595       -3.6862558267        1.6028538307
Pt              -3.7622761751       -0.7642141596       -2.7896392406
Pt              -2.4337396748       -2.7020453579        4.5290139332
Pt              -3.9910215264       -2.3529606250        2.3592193389
Pt               4.9196388207        0.5528704903       -0.9442037370
Pt               2.5861884418        3.8760165882        0.9173325766
Pt               4.3276709283       -0.5751231717       -3.3000322901
Pt              -1.7000844543        1.0536073119       -0.4014863676
Pt              -4.1807909786        2.7903388320        1.1830592936
Pt              -2.8525656309       -3.2834844500       -1.9386233701
Pt               0.6110805466        4.3471952866        2.6166148357
Pt              -0.0230144514       -1.2890617309       -4.7521275956
Pt               4.5195880331       -1.0082365279        1.3255541315
Pt               3.6537757856        1.9515168693       -2.7982351046
Pt               4.5583182067        3.2577065495       -0.6806989846
Pt              -0.4549455896        3.4589007652       -2.5281344994
Pt               0.4388665913        1.7518397315        1.0246418498
Pt              -1.7696459393        0.0940387147        1.9754045703
Pt               3.8370465147        0.2923718668        3.5728128335
Pt               3.5919396393       -3.4950804129        0.9297975925
Pt              -4.1516099161       -1.6118123803       -0.2630032540
Pt              -1.3731067905       -0.2136543317        4.5463892064
Pt              -3.0343258538        1.8301625224        3.5060663100
Pt              -1.4501150277       -1.5740393361       -0.0119954285
Pt               2.1789458950       -2.1373806413       -3.3435737135
Pt              -4.2581411900        1.0023533108       -0.8381542693
Pt               1.9769702568        0.4010247982       -4.0961482723
Pt               4.3104015878        1.7636484027        1.4574668530
Pt              -3.4456396798       -4.0946584674        0.4626761306
Pt               2.6731292731       -2.0656794631        3.0115287072
Pt              -1.5337696426       -3.4094279382        2.1241343583
Pt               0.1425055121       -2.4731499641        3.8902761119
Pt               2.0813679706        3.7718434379       -1.6692021321
Pt               0.0261703590        4.2187351759        0.0098825863
Pt              -2.4533412224        3.4905454382       -0.7669261958
Pt               1.2526606733       -0.0235157910        4.1166835255
Pt              -1.8186676538        3.5963242475        1.8956033113
Pt               1.6635314069        3.0753602565       -4.1982179923
Pt              -0.3732204856        2.1147329119        3.7263402469
Pt              -0.1933041862       -3.2349180967       -2.7663389082
Pt               3.9421346108       -2.0343208601       -1.1805105952
Pt               1.0514432677       -1.3611605550       -1.1197960284
Pt               2.2190315149        2.3111062036        3.1290256388
Pt              -4.0199000722       -0.5629267318        4.2706916224
H               -3.1002062477       -3.9355739519       -4.6497250964
End final coordinates

     Writing all to output data dir ./out/calc.save/ :
     XML data file, charge density, pseudopotentials, collected wavefunctions

     General routines

     Parallel routines

   This run was terminated on:   7: 9:38  28Jul2025

   JOB DONE.