     Program PWSCF v.7.3.1 starts on 14May2025 at 16:29:23

     Reading input from espresso.pwi
Warning: card   &CELL ignored
Warning: card      CELL_DOFREE = 'IBRAV' ignored
Warning: card / ignored

     Current dimensions of program PWSCF are:
     Max number of different atomic species (ntypx) = 10
     Max number of k-points (npk) =  40000
     Max angular momentum in pseudopotentials (lmaxx) =  4
     Message from routine iosys:
     restart disabled: needed files not found

     IMPORTANT: XC functional enforced from input :
     Exchange-correlation= RVV10
                           (   1   4  13   4  26   0   0)
     Any further DFT definition will be discarded
     Please, verify this is what you really want

     Atomic positions and unit cell read from directory:
     ./out/calc.save/
     Message from routine qexsd_readschema :
     xml data file ./out/calc.save/data-file-schema.xml not found
     Nothing found: using input atomic positions and unit cell

     gamma-point specific algorithms are used

     R & G space division:  proc/nbgrp/npool/nimage =      36
     Subspace diagonalization in iterative solution of the eigenvalue problem:
     one sub-group per band group will be used

     Using Slab Decomposition

     Title:
     calc

     bravais-lattice index     =            0
     lattice parameter (alat)  =      47.2432  a.u.
     unit-cell volume          =  105442.7265 (a.u.)^3
     number of atoms/cell      =          117
     number of atomic types    =            2
     number of electrons       =      1857.00
     number of Kohn-Sham states=         1115
     kinetic-energy cutoff     =      60.0000  Ry
     charge density cutoff     =     480.0000  Ry
     scf convergence threshold =      1.0E-06
     mixing beta               =       0.1000
     number of iterations used =            8  local-TF  mixing
     energy convergence thresh.=      1.0E-04
     force convergence thresh. =      1.0E-03
     Exchange-correlation= RVV10
                           (   1   4  13   4  26   0   0)
     nstep                     =        10000

     celldm(1)=  47.243153  celldm(2)=   0.000000  celldm(3)=   0.000000
     celldm(4)=   0.000000  celldm(5)=   0.000000  celldm(6)=   0.000000

     crystal axes: (cart. coord. in units of alat)
               a(1) = (   1.000000   0.000000   0.000000 )
               a(2) = (   0.000000   1.000000   0.000000 )
               a(3) = (   0.000000   0.000000   1.000000 )

     reciprocal axes: (cart. coord. in units 2 pi/alat)
               b(1) = (  1.000000  0.000000  0.000000 )
               b(2) = (  0.000000  1.000000  0.000000 )
               b(3) = (  0.000000  0.000000  1.000000 )

     PseudoPot. # 1 for Pt read from file:
     /home/james/work/espresso/SSSP_1.3.0_PBE_efficiency/pt_pbe_v1.4.uspp.F.UPF
     MD5 check sum: f09d6de1a584b5a045c4fc126da2d0c4
     Pseudo is Ultrasoft + core correction, Zval = 16.0
     Generated by new atomic code, or converted to UPF format
     Using radial grid of  985 points,  6 beta functions with:
                l(1) =   0
                l(2) =   0
                l(3) =   1
                l(4) =   1
                l(5) =   2
                l(6) =   2
     Q(r) pseudized with  8 coefficients,  rinner =    1.300   1.300   1.300
                                                       1.300   1.300

     PseudoPot. # 2 for H  read from file:
     /home/james/work/espresso/SSSP_1.3.0_PBE_efficiency/H.pbe-rrkjus_psl.1.0.0.UPF
     MD5 check sum: f52b6d4d1c606e5624b1dc7b2218f220
     Pseudo is Ultrasoft, Zval =  1.0
     Generated using "atomic" code by A. Dal Corso  v.5.1
     Using radial grid of  929 points,  2 beta functions with:
                l(1) =   0
                l(2) =   0
     Q(r) pseudized with 0 coefficients

     atomic species   valence    mass     pseudopotential
     Pt               16.00   195.08400     Pt( 1.00)
     H                 1.00     1.00800     H ( 1.00)

     Starting magnetic structure
     atomic species   magnetization
     Pt              0.010
     H               0.020

     No symmetry found

                                    s                        frac. trans.

      isym =  1     identity

 cryst.   s( 1) = (     1          0          0      )
                  (     0          1          0      )
                  (     0          0          1      )

 cart.    s( 1) = (  1.0000000  0.0000000  0.0000000 )
                  (  0.0000000  1.0000000  0.0000000 )
                  (  0.0000000  0.0000000  1.0000000 )

   Cartesian axes

     site n.     atom                  positions (alat units)
         1        Pt     tau(   1) = (  -0.2317675  -0.1538076   0.0000000  )
         2        Pt     tau(   2) = (  -0.1538076  -0.2317675   0.0000000  )
         3        Pt     tau(   3) = (  -0.1617552  -0.1617552  -0.0847262  )
         4        Pt     tau(   4) = (  -0.1617552  -0.1617552   0.0847262  )
         5        Pt     tau(   5) = (  -0.2317675   0.0000000  -0.1538076  )
         6        Pt     tau(   6) = (  -0.1617552  -0.0847262  -0.1617552  )
         7        Pt     tau(   7) = (  -0.1538076   0.0000000  -0.2317675  )
         8        Pt     tau(   8) = (  -0.2338884  -0.0780549  -0.0780549  )
         9        Pt     tau(   9) = (  -0.2370085   0.0000000   0.0000000  )
        10        Pt     tau(  10) = (  -0.1554443  -0.0788784   0.0000000  )
        11        Pt     tau(  11) = (  -0.1554443   0.0000000  -0.0788784  )
        12        Pt     tau(  12) = (  -0.2338884  -0.0780549   0.0780549  )
        13        Pt     tau(  13) = (  -0.2317675   0.0000000   0.1538076  )
        14        Pt     tau(  14) = (  -0.1617552  -0.0847262   0.1617552  )
        15        Pt     tau(  15) = (  -0.1554443   0.0000000   0.0788784  )
        16        Pt     tau(  16) = (  -0.1538076   0.0000000   0.2317675  )
        17        Pt     tau(  17) = (  -0.1617552   0.0847262  -0.1617552  )
        18        Pt     tau(  18) = (  -0.2338884   0.0780549  -0.0780549  )
        19        Pt     tau(  19) = (  -0.2317675   0.1538076   0.0000000  )
        20        Pt     tau(  20) = (  -0.1554443   0.0788784   0.0000000  )
        21        Pt     tau(  21) = (  -0.1617552   0.1617552  -0.0847262  )
        22        Pt     tau(  22) = (  -0.2338884   0.0780549   0.0780549  )
        23        Pt     tau(  23) = (  -0.1617552   0.0847262   0.1617552  )
        24        Pt     tau(  24) = (  -0.1617552   0.1617552   0.0847262  )
        25        Pt     tau(  25) = (  -0.1538076   0.2317675   0.0000000  )
        26        Pt     tau(  26) = (  -0.0847262  -0.1617552  -0.1617552  )
        27        Pt     tau(  27) = (   0.0000000  -0.2317675  -0.1538076  )
        28        Pt     tau(  28) = (   0.0000000  -0.1538076  -0.2317675  )
        29        Pt     tau(  29) = (  -0.0780549  -0.2338884  -0.0780549  )
        30        Pt     tau(  30) = (  -0.0788784  -0.1554443   0.0000000  )
        31        Pt     tau(  31) = (   0.0000000  -0.2370085   0.0000000  )
        32        Pt     tau(  32) = (   0.0000000  -0.1554443  -0.0788784  )
        33        Pt     tau(  33) = (  -0.0780549  -0.2338884   0.0780549  )
        34        Pt     tau(  34) = (  -0.0847262  -0.1617552   0.1617552  )
        35        Pt     tau(  35) = (   0.0000000  -0.2317675   0.1538076  )
        36        Pt     tau(  36) = (   0.0000000  -0.1554443   0.0788784  )
        37        Pt     tau(  37) = (   0.0000000  -0.1538076   0.2317675  )
        38        Pt     tau(  38) = (  -0.0780549  -0.0780549  -0.2338884  )
        39        Pt     tau(  39) = (  -0.0788784   0.0000000  -0.1554443  )
        40        Pt     tau(  40) = (   0.0000000  -0.0788784  -0.1554443  )
        41        Pt     tau(  41) = (   0.0000000   0.0000000  -0.2370085  )
        42        Pt     tau(  42) = (  -0.0808740  -0.0808740  -0.0808740  )
        43        Pt     tau(  43) = (  -0.0786873   0.0000000   0.0000000  )
        44        Pt     tau(  44) = (   0.0000000  -0.0786873   0.0000000  )
        45        Pt     tau(  45) = (   0.0000000   0.0000000  -0.0786873  )
        46        Pt     tau(  46) = (  -0.0808740  -0.0808740   0.0808740  )
        47        Pt     tau(  47) = (  -0.0788784   0.0000000   0.1554443  )
        48        Pt     tau(  48) = (   0.0000000  -0.0788784   0.1554443  )
        49        Pt     tau(  49) = (   0.0000000   0.0000000   0.0786873  )
        50        Pt     tau(  50) = (  -0.0780549  -0.0780549   0.2338884  )
        51        Pt     tau(  51) = (   0.0000000   0.0000000   0.2370085  )
        52        Pt     tau(  52) = (  -0.0780549   0.0780549  -0.2338884  )
        53        Pt     tau(  53) = (  -0.0847262   0.1617552  -0.1617552  )
        54        Pt     tau(  54) = (   0.0000000   0.0788784  -0.1554443  )
        55        Pt     tau(  55) = (   0.0000000   0.1538076  -0.2317675  )
        56        Pt     tau(  56) = (  -0.0808740   0.0808740  -0.0808740  )
        57        Pt     tau(  57) = (  -0.0788784   0.1554443   0.0000000  )
        58        Pt     tau(  58) = (   0.0000000   0.0786873   0.0000000  )
        59        Pt     tau(  59) = (   0.0000000   0.1554443  -0.0788784  )
        60        Pt     tau(  60) = (  -0.0808740   0.0808740   0.0808740  )
[...]
       103        Pt     tau( 103) = (   0.1617552   0.1617552   0.0847262  )
       104        Pt     tau( 104) = (   0.0780549   0.0780549   0.2338884  )
       105        Pt     tau( 105) = (   0.0780549   0.2338884  -0.0780549  )
       106        Pt     tau( 106) = (   0.1538076   0.2317675   0.0000000  )
       107        Pt     tau( 107) = (   0.0780549   0.2338884   0.0780549  )
       108        Pt     tau( 108) = (   0.2317675  -0.1538076   0.0000000  )
       109        Pt     tau( 109) = (   0.2317675   0.0000000  -0.1538076  )
       110        Pt     tau( 110) = (   0.2338884  -0.0780549  -0.0780549  )
       111        Pt     tau( 111) = (   0.2370085   0.0000000   0.0000000  )
       112        Pt     tau( 112) = (   0.2338884  -0.0780549   0.0780549  )
       113        Pt     tau( 113) = (   0.2317675   0.0000000   0.1538076  )
       114        Pt     tau( 114) = (   0.2338884   0.0780549  -0.0780549  )
       115        Pt     tau( 115) = (   0.2317675   0.1538076   0.0000000  )
       116        Pt     tau( 116) = (   0.2338884   0.0780549   0.0780549  )
       117        H      tau( 117) = (  -0.2405846  -0.1941552  -0.0612435  )

   Crystallographic axes

     site n.     atom                  positions (cryst. coord.)
         1        Pt     tau(   1) = ( -0.2317675 -0.1538076  0.0000000  )
         2        Pt     tau(   2) = ( -0.1538076 -0.2317675  0.0000000  )
         3        Pt     tau(   3) = ( -0.1617552 -0.1617552 -0.0847262  )
         4        Pt     tau(   4) = ( -0.1617552 -0.1617552  0.0847262  )
         5        Pt     tau(   5) = ( -0.2317675  0.0000000 -0.1538076  )
         6        Pt     tau(   6) = ( -0.1617552 -0.0847262 -0.1617552  )
         7        Pt     tau(   7) = ( -0.1538076  0.0000000 -0.2317675  )
         8        Pt     tau(   8) = ( -0.2338884 -0.0780549 -0.0780549  )
[...]
     atom   10 type  1   force =     0.00000000    0.00000000    0.00000000
     atom   11 type  1   force =     0.00000000    0.00000000    0.00000000
     atom   12 type  1   force =     0.00000000    0.00000000    0.00000000
     atom   13 type  1   force =     0.00000000    0.00000000    0.00000000
     atom   14 type  1   force =     0.00000000    0.00000000    0.00000000
     atom   15 type  1   force =     0.00000000    0.00000000    0.00000000
     atom   16 type  1   force =     0.00000000    0.00000000    0.00000000
     atom   17 type  1   force =     0.00000000    0.00000000    0.00000000
     atom   18 type  1   force =     0.00000000    0.00000000    0.00000000
     atom   19 type  1   force =     0.00000000    0.00000000    0.00000000
     atom   20 type  1   force =     0.00000000    0.00000000    0.00000000
     atom   21 type  1   force =     0.00000000    0.00000000    0.00000000
     atom   22 type  1   force =     0.00000000    0.00000000    0.00000000
     atom   23 type  1   force =     0.00000000    0.00000000    0.00000000
     atom   24 type  1   force =     0.00000000    0.00000000    0.00000000
     atom   25 type  1   force =     0.00000000    0.00000000    0.00000000
     atom   26 type  1   force =     0.00000000    0.00000000    0.00000000
     atom   27 type  1   force =     0.00000000    0.00000000    0.00000000
     atom   28 type  1   force =     0.00000000    0.00000000    0.00000000
     atom   29 type  1   force =     0.00000000    0.00000000    0.00000000
     atom   30 type  1   force =     0.00000000    0.00000000    0.00000000
     atom   31 type  1   force =     0.00000000    0.00000000    0.00000000
     atom   32 type  1   force =     0.00000000    0.00000000    0.00000000
     atom   33 type  1   force =     0.00000000    0.00000000    0.00000000
     atom   34 type  1   force =     0.00000000    0.00000000    0.00000000
     atom   35 type  1   force =     0.00000000    0.00000000    0.00000000
     atom   36 type  1   force =     0.00000000    0.00000000    0.00000000
     atom   37 type  1   force =     0.00000000    0.00000000    0.00000000
     atom   38 type  1   force =     0.00000000    0.00000000    0.00000000
     atom   39 type  1   force =     0.00000000    0.00000000    0.00000000
     atom   40 type  1   force =     0.00000000    0.00000000    0.00000000
     atom   41 type  1   force =     0.00000000    0.00000000    0.00000000
     atom   42 type  1   force =     0.00000000    0.00000000    0.00000000
     atom   43 type  1   force =     0.00000000    0.00000000    0.00000000
     atom   44 type  1   force =     0.00000000    0.00000000    0.00000000
     atom   45 type  1   force =     0.00000000    0.00000000    0.00000000
     atom   46 type  1   force =     0.00000000    0.00000000    0.00000000
     atom   47 type  1   force =     0.00000000    0.00000000    0.00000000
     atom   48 type  1   force =     0.00000000    0.00000000    0.00000000
     atom   49 type  1   force =     0.00000000    0.00000000    0.00000000
     atom   50 type  1   force =     0.00000000    0.00000000    0.00000000
     atom   51 type  1   force =     0.00000000    0.00000000    0.00000000
     atom   52 type  1   force =     0.00000000    0.00000000    0.00000000
     atom   53 type  1   force =     0.00000000    0.00000000    0.00000000
     atom   54 type  1   force =     0.00000000    0.00000000    0.00000000
     atom   55 type  1   force =     0.00000000    0.00000000    0.00000000
     atom   56 type  1   force =     0.00000000    0.00000000    0.00000000
     atom   57 type  1   force =     0.00000000    0.00000000    0.00000000
     atom   58 type  1   force =     0.00000000    0.00000000    0.00000000
     atom   59 type  1   force =     0.00000000    0.00000000    0.00000000
     atom   60 type  1   force =     0.00000000    0.00000000    0.00000000
[...]
     atom  103 type  1   force =     0.00000000    0.00000000    0.00000000
     atom  104 type  1   force =     0.00000000    0.00000000    0.00000000
     atom  105 type  1   force =     0.00000000    0.00000000    0.00000000
     atom  106 type  1   force =     0.00000000    0.00000000    0.00000000
     atom  107 type  1   force =     0.00000000    0.00000000    0.00000000
     atom  108 type  1   force =     0.00000000    0.00000000    0.00000000
     atom  109 type  1   force =     0.00000000    0.00000000    0.00000000
     atom  110 type  1   force =     0.00000000    0.00000000    0.00000000
     atom  111 type  1   force =     0.00000000    0.00000000    0.00000000
     atom  112 type  1   force =     0.00000000    0.00000000    0.00000000
     atom  113 type  1   force =     0.00000000    0.00000000    0.00000000
     atom  114 type  1   force =     0.00000000    0.00000000    0.00000000
     atom  115 type  1   force =     0.00000000    0.00000000    0.00000000
     atom  116 type  1   force =     0.00000000    0.00000000    0.00000000
     atom  117 type  2   force =     0.00000000    0.00000000    0.00000000
     The SCF correction term to forces
     atom    1 type  1   force =    -0.00000316    0.00000613    0.00001475
     atom    2 type  1   force =    -0.00000510   -0.00000796    0.00000602
     atom    3 type  1   force =    -0.00000757   -0.00000029    0.00000839
     atom    4 type  1   force =    -0.00000082    0.00000611    0.00000339
     atom    5 type  1   force =    -0.00000249    0.00000110    0.00000694
     atom    6 type  1   force =    -0.00000383    0.00000617    0.00000241
     atom    7 type  1   force =    -0.00000312    0.00000123    0.00000172
     atom    8 type  1   force =    -0.00000597    0.00000943    0.00000901
     atom    9 type  1   force =    -0.00000137   -0.00000252    0.00000028
     atom   10 type  1   force =     0.00002311    0.00002684    0.00000948
     atom   11 type  1   force =     0.00002036    0.00000031    0.00002445
     atom   12 type  1   force =    -0.00000228    0.00000381   -0.00000159
     atom   13 type  1   force =    -0.00000157   -0.00000539   -0.00000388
     atom   14 type  1   force =     0.00000297   -0.00000011   -0.00000546
     atom   15 type  1   force =     0.00002671   -0.00000187   -0.00001761
     atom   16 type  1   force =     0.00000619   -0.00000085   -0.00000335
     atom   17 type  1   force =    -0.00000570    0.00000297    0.00000678
     atom   18 type  1   force =    -0.00000564   -0.00000527    0.00000414
     atom   19 type  1   force =    -0.00000243   -0.00000405    0.00000039
     atom   20 type  1   force =     0.00002291   -0.00002212    0.00000446
     atom   21 type  1   force =    -0.00000044   -0.00000561    0.00000152
     atom   22 type  1   force =    -0.00000037   -0.00000652   -0.00000278
     atom   23 type  1   force =     0.00000688    0.00000139   -0.00000221
     atom   24 type  1   force =     0.00000562   -0.00000338    0.00000434
     atom   25 type  1   force =     0.00000240    0.00000013    0.00000288
     atom   26 type  1   force =     0.00000299    0.00000120   -0.00000253
     atom   27 type  1   force =    -0.00000124   -0.00000669   -0.00000317
     atom   28 type  1   force =    -0.00000411   -0.00000563   -0.00000044
     atom   29 type  1   force =    -0.00000028   -0.00001016    0.00000253
     atom   30 type  1   force =     0.00000882    0.00003201    0.00000857
     atom   31 type  1   force =    -0.00000308   -0.00000216    0.00000004
     atom   32 type  1   force =    -0.00000404    0.00002650    0.00001596
     atom   33 type  1   force =    -0.00000474   -0.00000006    0.00000011
     atom   34 type  1   force =    -0.00000429    0.00000783   -0.00000222
     atom   35 type  1   force =    -0.00000181   -0.00000099    0.00000888
     atom   36 type  1   force =    -0.00000862    0.00003143   -0.00000890
     atom   37 type  1   force =    -0.00000261    0.00000783    0.00000443
     atom   38 type  1   force =    -0.00000497   -0.00000330   -0.00000059
     atom   39 type  1   force =     0.00000705   -0.00000134    0.00003229
     atom   40 type  1   force =    -0.00000911    0.00001269    0.00003035
     atom   41 type  1   force =    -0.00000434    0.00000075   -0.00000215
     atom   42 type  1   force =     0.00002268    0.00003811    0.00003516
     atom   43 type  1   force =     0.00005155   -0.00000250    0.00001073
     atom   44 type  1   force =    -0.00001548    0.00006504    0.00001028
     atom   45 type  1   force =    -0.00001233   -0.00000035    0.00006859
     atom   46 type  1   force =     0.00002032    0.00003408   -0.00002320
     atom   47 type  1   force =     0.00001836   -0.00000100   -0.00002655
     atom   48 type  1   force =    -0.00000643    0.00002219   -0.00002051
     atom   49 type  1   force =    -0.00001155    0.00000332   -0.00005495
     atom   50 type  1   force =     0.00000348    0.00000477   -0.00000106
     atom   51 type  1   force =    -0.00000504   -0.00000200    0.00000087
     atom   52 type  1   force =    -0.00000424    0.00000602   -0.00000265
     atom   53 type  1   force =    -0.00000257    0.00000398    0.00000487
     atom   54 type  1   force =    -0.00000455   -0.00000747    0.00002972
     atom   55 type  1   force =    -0.00000279    0.00001229   -0.00000259
     atom   56 type  1   force =     0.00001783   -0.00002407    0.00003382
     atom   57 type  1   force =     0.00001412   -0.00002681    0.00000667
     atom   58 type  1   force =    -0.00000729   -0.00005809    0.00001245
     atom   59 type  1   force =    -0.00000146   -0.00001618    0.00001971
     atom   60 type  1   force =     0.00002594   -0.00002941   -0.00002303
[...]
     atom  103 type  1   force =    -0.00000279    0.00000329   -0.00000038
     atom  104 type  1   force =    -0.00000970   -0.00000320    0.00000435
     atom  105 type  1   force =    -0.00000015    0.00000631    0.00000099
     atom  106 type  1   force =     0.00000096    0.00000354   -0.00000199
     atom  107 type  1   force =    -0.00000228    0.00000255   -0.00000013
     atom  108 type  1   force =     0.00000967   -0.00000299    0.00000110
     atom  109 type  1   force =     0.00001391    0.00000347   -0.00000451
     atom  110 type  1   force =     0.00001166    0.00000124   -0.00000121
     atom  111 type  1   force =     0.00000695    0.00000553    0.00000259
     atom  112 type  1   force =     0.00000854    0.00000189    0.00000524
     atom  113 type  1   force =     0.00000520   -0.00000006    0.00000457
     atom  114 type  1   force =     0.00000812    0.00000836    0.00000253
     atom  115 type  1   force =     0.00000281    0.00000588   -0.00000091
     atom  116 type  1   force =     0.00000419    0.00000513   -0.00000074
     atom  117 type  2   force =    -0.00000131    0.00000003    0.00000145

     Total force =     0.003972     Total SCF correction =     0.000262
     Energy error            =      5.2E-05 Ry
     Gradient error          =      1.0E-03 Ry/Bohr

     bfgs converged in  23 scf cycles and  22 bfgs steps
     (criteria: energy <  1.0E-04 Ry, force <  1.0E-03 Ry/Bohr)

     End of BFGS Geometry Optimization

     Final energy             =  -24449.0138084735 Ry

     File ./out/calc.bfgs deleted, as requested
Begin final coordinates

ATOMIC_POSITIONS (angstrom)
Pt              -5.7949770227       -3.8426124042       -0.0011170405
Pt              -3.8035567699       -5.8060140979        0.0362262345
Pt              -4.1785028052       -4.1609389757       -2.2215141171
Pt              -4.0542391389       -4.0605075120        2.1381841379
Pt              -5.7843814782        0.0113072010       -3.8525767169
Pt              -4.0699182584       -2.1281171112       -4.0674048662
Pt              -3.8292025783        0.0068538908       -5.7925120830
Pt              -5.8340313440       -1.9193800548       -1.9588225083
Pt              -5.9175839789        0.0066045483        0.0088301655
Pt              -3.8915550248       -1.9775424124       -0.0058046698
Pt              -3.8863161931        0.0114986775       -1.9707447753
Pt              -5.8212888602       -1.9607225391        1.9668779869
Pt              -5.7955686000        0.0186641293        3.8557830166
Pt              -4.0505449655       -2.1210848411        4.0585410388
Pt              -3.8875877587        0.0019590577        1.9744414680
Pt              -3.8358467515        0.0031822990        5.7966681848
Pt              -4.0472852410        2.1306328102       -4.0578655426
Pt              -5.8349111875        1.9594421656       -1.9561263035
Pt              -5.7895991138        3.8464438404        0.0002973239
Pt              -3.8824949882        1.9714055099        0.0038772995
Pt              -4.0478946462        4.0528583288       -2.1213154306
Pt              -5.8417488450        1.9590384967        1.9576192246
Pt              -4.0478702126        2.1254405101        4.0504894228
Pt              -4.0477986276        4.0539432776        2.1205664088
Pt              -3.8375984587        5.7941154617        0.0008131051
Pt              -2.1524310727       -4.0626297299       -4.0368521030
Pt              -0.0087390222       -5.7830841814       -3.8354026516
Pt              -0.0036489573       -3.8369687070       -5.7815312185
Pt              -1.9703942747       -5.8302739724       -1.9496381682
Pt              -1.9832607620       -3.8782213002       -0.0076553050
Pt              -0.0050257098       -5.9132661421       -0.0056924121
Pt              -0.0054224112       -3.8822224580       -1.9674136753
Pt              -1.9461109719       -5.8264081531        1.9700127762
Pt              -2.1136976742       -4.0473226440        4.0670257989
Pt               0.0093736789       -5.7906022706        3.8471903679
Pt               0.0018244225       -3.8777646973        1.9689904456
Pt               0.0081866059       -3.8318045720        5.7993858359
Pt              -1.9583571515       -1.9626719333       -5.8249812220
Pt              -1.9744840354       -0.0130333927       -3.8656109976
Pt              -0.0184847289       -1.9759255245       -3.8606659439
Pt              -0.0064792308       -0.0062395025       -5.9064794695
Pt              -2.0848811631       -2.0696362193       -2.0297803355
Pt              -1.9740595433       -0.0077084591       -0.0049702622
Pt              -0.0167266443       -1.9699936023       -0.0094000858
Pt              -0.0072063771       -0.0042986632       -1.9585810121
Pt              -2.0436787607       -2.0383828776        2.0293856217
Pt              -1.9720904609       -0.0048917708        3.8771590851
Pt              -0.0032955415       -1.9742855131        3.8769086791
Pt              -0.0081563550       -0.0116217713        1.9589572160
Pt              -1.9542616435       -1.9506825733        5.8425542647
Pt               0.0009637994       -0.0033755258        5.9137069260
Pt              -1.9456179245        1.9511539385       -5.8324667581
Pt              -2.1174562270        4.0534000167       -4.0466926515
Pt              -0.0022821761        1.9657077003       -3.8758326730
Pt               0.0046750053        3.8434425096       -5.7878134040
Pt              -2.0346900730        2.0276205678       -2.0315833915
Pt              -1.9699788870        3.8751653489        0.0005451532
Pt              -0.0022710746        1.9560018751        0.0005306511
Pt              -0.0015705579        3.8762651354       -1.9693520532
Pt              -2.0326439864        2.0237532819        2.0297811479
[...]
Pt               4.0501255622        4.0517904986        2.1205473294
Pt               1.9474424519        1.9461086960        5.8328298754
Pt               1.9518429523        5.8394960471       -1.9490067044
Pt               3.8409020906        5.7910714839       -0.0005291249
Pt               1.9501665154        5.8358735572        1.9489121625
Pt               5.7922349100       -3.8420046574        0.0014165656
Pt               5.7928744330        0.0016366810       -3.8396279653
Pt               5.8395163735       -1.9505625568       -1.9496913163
Pt               5.9186068523        0.0010237624       -0.0009093011
Pt               5.8395064039       -1.9508279312        1.9491756930
Pt               5.7917056445        0.0004506923        3.8406011182
Pt               5.8377285141        1.9526590090       -1.9495857705
Pt               5.7885711707        3.8470367519       -0.0011065549
Pt               5.8342226951        1.9521337817        1.9482909285
H               -5.7070147829       -4.7273454105       -1.6102979226
End final coordinates

     Writing all to output data dir ./out/calc.save/ :
     XML data file, charge density, pseudopotentials, collected wavefunctions

     General routines

     Parallel routines

   This run was terminated on:  16:24:30  26May2025

   JOB DONE.