     Program PWSCF v.7.3.1 starts on 28Apr2025 at 11: 1:23

     Reading input from espresso.pwi
Warning: card   &CELL ignored
Warning: card      CELL_DOFREE = 'IBRAV' ignored
Warning: card / ignored

     Current dimensions of program PWSCF are:
     Max number of different atomic species (ntypx) = 10
     Max number of k-points (npk) =  40000
     Max angular momentum in pseudopotentials (lmaxx) =  4

     IMPORTANT: XC functional enforced from input :
     Exchange-correlation= RVV10
                           (   1   4  13   4  26   0   0)
     Any further DFT definition will be discarded
     Please, verify this is what you really want

     gamma-point specific algorithms are used
     Message from routine setup:
     using ibrav=0 with symmetry is DISCOURAGED, use correct ibrav instead

     R & G space division:  proc/nbgrp/npool/nimage =      36
     Subspace diagonalization in iterative solution of the eigenvalue problem:
     one sub-group per band group will be used

     Using Slab Decomposition

     Title:
     calc

     bravais-lattice index     =            0
     lattice parameter (alat)  =      47.2432  a.u.
     unit-cell volume          =  105442.7265 (a.u.)^3
     number of atoms/cell      =          117
     number of atomic types    =            2
     number of electrons       =      1857.00
     number of Kohn-Sham states=         1115
     kinetic-energy cutoff     =      60.0000  Ry
     charge density cutoff     =     480.0000  Ry
     scf convergence threshold =      1.0E-06
     mixing beta               =       0.1000
     number of iterations used =            8  local-TF  mixing
     energy convergence thresh.=      1.0E-04
     force convergence thresh. =      1.0E-03
     Exchange-correlation= RVV10
                           (   1   4  13   4  26   0   0)
     nstep                     =        10000

     celldm(1)=  47.243153  celldm(2)=   0.000000  celldm(3)=   0.000000
     celldm(4)=   0.000000  celldm(5)=   0.000000  celldm(6)=   0.000000

     crystal axes: (cart. coord. in units of alat)
               a(1) = (   1.000000   0.000000   0.000000 )
               a(2) = (   0.000000   1.000000   0.000000 )
               a(3) = (   0.000000   0.000000   1.000000 )

     reciprocal axes: (cart. coord. in units 2 pi/alat)
               b(1) = (  1.000000  0.000000  0.000000 )
               b(2) = (  0.000000  1.000000  0.000000 )
               b(3) = (  0.000000  0.000000  1.000000 )

     PseudoPot. # 1 for Pt read from file:
     /home/james/work/espresso/SSSP_1.3.0_PBE_efficiency/pt_pbe_v1.4.uspp.F.UPF
     MD5 check sum: f09d6de1a584b5a045c4fc126da2d0c4
     Pseudo is Ultrasoft + core correction, Zval = 16.0
     Generated by new atomic code, or converted to UPF format
     Using radial grid of  985 points,  6 beta functions with:
                l(1) =   0
                l(2) =   0
                l(3) =   1
                l(4) =   1
                l(5) =   2
                l(6) =   2
     Q(r) pseudized with  8 coefficients,  rinner =    1.300   1.300   1.300
                                                       1.300   1.300

     PseudoPot. # 2 for H  read from file:
     /home/james/work/espresso/SSSP_1.3.0_PBE_efficiency/H.pbe-rrkjus_psl.1.0.0.UPF
     MD5 check sum: f52b6d4d1c606e5624b1dc7b2218f220
     Pseudo is Ultrasoft, Zval =  1.0
     Generated using "atomic" code by A. Dal Corso  v.5.1
     Using radial grid of  929 points,  2 beta functions with:
                l(1) =   0
                l(2) =   0
     Q(r) pseudized with 0 coefficients

     atomic species   valence    mass     pseudopotential
     Pt               16.00   195.08400     Pt( 1.00)
     H                 1.00     1.00800     H ( 1.00)

     Starting magnetic structure
     atomic species   magnetization
     Pt              0.010
     H               0.020

      2 Sym. Ops. (no inversion) found

                                    s                        frac. trans.

      isym =  1     identity

 cryst.   s( 1) = (     1          0          0      )
                  (     0          1          0      )
                  (     0          0          1      )

 cart.    s( 1) = (  1.0000000  0.0000000  0.0000000 )
                  (  0.0000000  1.0000000  0.0000000 )
                  (  0.0000000  0.0000000  1.0000000 )

      isym =  2     inv. 180 deg rotation - cart. axis [1,-1,0]

 cryst.   s( 2) = (     0          1          0      )
                  (     1          0          0      )
                  (     0          0          1      )

 cart.    s( 2) = (  0.0000000  1.0000000  0.0000000 )
                  (  1.0000000  0.0000000  0.0000000 )
                  (  0.0000000  0.0000000  1.0000000 )

   Cartesian axes

     site n.     atom                  positions (alat units)
         1        Pt     tau(   1) = (  -0.2317675  -0.1538076   0.0000000  )
         2        Pt     tau(   2) = (  -0.1538076  -0.2317675   0.0000000  )
         3        Pt     tau(   3) = (  -0.1617552  -0.1617552  -0.0847262  )
         4        Pt     tau(   4) = (  -0.1617552  -0.1617552   0.0847262  )
         5        Pt     tau(   5) = (  -0.2317675   0.0000000  -0.1538076  )
         6        Pt     tau(   6) = (  -0.1617552  -0.0847262  -0.1617552  )
         7        Pt     tau(   7) = (  -0.1538076   0.0000000  -0.2317675  )
         8        Pt     tau(   8) = (  -0.2338884  -0.0780549  -0.0780549  )
         9        Pt     tau(   9) = (  -0.2370085   0.0000000   0.0000000  )
        10        Pt     tau(  10) = (  -0.1554443  -0.0788784   0.0000000  )
        11        Pt     tau(  11) = (  -0.1554443   0.0000000  -0.0788784  )
        12        Pt     tau(  12) = (  -0.2338884  -0.0780549   0.0780549  )
        13        Pt     tau(  13) = (  -0.2317675   0.0000000   0.1538076  )
        14        Pt     tau(  14) = (  -0.1617552  -0.0847262   0.1617552  )
        15        Pt     tau(  15) = (  -0.1554443   0.0000000   0.0788784  )
        16        Pt     tau(  16) = (  -0.1538076   0.0000000   0.2317675  )
        17        Pt     tau(  17) = (  -0.1617552   0.0847262  -0.1617552  )
        18        Pt     tau(  18) = (  -0.2338884   0.0780549  -0.0780549  )
        19        Pt     tau(  19) = (  -0.2317675   0.1538076   0.0000000  )
        20        Pt     tau(  20) = (  -0.1554443   0.0788784   0.0000000  )
        21        Pt     tau(  21) = (  -0.1617552   0.1617552  -0.0847262  )
        22        Pt     tau(  22) = (  -0.2338884   0.0780549   0.0780549  )
        23        Pt     tau(  23) = (  -0.1617552   0.0847262   0.1617552  )
        24        Pt     tau(  24) = (  -0.1617552   0.1617552   0.0847262  )
        25        Pt     tau(  25) = (  -0.1538076   0.2317675   0.0000000  )
        26        Pt     tau(  26) = (  -0.0847262  -0.1617552  -0.1617552  )
        27        Pt     tau(  27) = (   0.0000000  -0.2317675  -0.1538076  )
        28        Pt     tau(  28) = (   0.0000000  -0.1538076  -0.2317675  )
        29        Pt     tau(  29) = (  -0.0780549  -0.2338884  -0.0780549  )
        30        Pt     tau(  30) = (  -0.0788784  -0.1554443   0.0000000  )
        31        Pt     tau(  31) = (   0.0000000  -0.2370085   0.0000000  )
        32        Pt     tau(  32) = (   0.0000000  -0.1554443  -0.0788784  )
        33        Pt     tau(  33) = (  -0.0780549  -0.2338884   0.0780549  )
        34        Pt     tau(  34) = (  -0.0847262  -0.1617552   0.1617552  )
        35        Pt     tau(  35) = (   0.0000000  -0.2317675   0.1538076  )
        36        Pt     tau(  36) = (   0.0000000  -0.1554443   0.0788784  )
        37        Pt     tau(  37) = (   0.0000000  -0.1538076   0.2317675  )
        38        Pt     tau(  38) = (  -0.0780549  -0.0780549  -0.2338884  )
        39        Pt     tau(  39) = (  -0.0788784   0.0000000  -0.1554443  )
        40        Pt     tau(  40) = (   0.0000000  -0.0788784  -0.1554443  )
        41        Pt     tau(  41) = (   0.0000000   0.0000000  -0.2370085  )
        42        Pt     tau(  42) = (  -0.0808740  -0.0808740  -0.0808740  )
        43        Pt     tau(  43) = (  -0.0786873   0.0000000   0.0000000  )
        44        Pt     tau(  44) = (   0.0000000  -0.0786873   0.0000000  )
        45        Pt     tau(  45) = (   0.0000000   0.0000000  -0.0786873  )
        46        Pt     tau(  46) = (  -0.0808740  -0.0808740   0.0808740  )
        47        Pt     tau(  47) = (  -0.0788784   0.0000000   0.1554443  )
        48        Pt     tau(  48) = (   0.0000000  -0.0788784   0.1554443  )
        49        Pt     tau(  49) = (   0.0000000   0.0000000   0.0786873  )
        50        Pt     tau(  50) = (  -0.0780549  -0.0780549   0.2338884  )
        51        Pt     tau(  51) = (   0.0000000   0.0000000   0.2370085  )
        52        Pt     tau(  52) = (  -0.0780549   0.0780549  -0.2338884  )
        53        Pt     tau(  53) = (  -0.0847262   0.1617552  -0.1617552  )
        54        Pt     tau(  54) = (   0.0000000   0.0788784  -0.1554443  )
        55        Pt     tau(  55) = (   0.0000000   0.1538076  -0.2317675  )
        56        Pt     tau(  56) = (  -0.0808740   0.0808740  -0.0808740  )
        57        Pt     tau(  57) = (  -0.0788784   0.1554443   0.0000000  )
        58        Pt     tau(  58) = (   0.0000000   0.0786873   0.0000000  )
        59        Pt     tau(  59) = (   0.0000000   0.1554443  -0.0788784  )
        60        Pt     tau(  60) = (  -0.0808740   0.0808740   0.0808740  )
[...]
       103        Pt     tau( 103) = (   0.1617552   0.1617552   0.0847262  )
       104        Pt     tau( 104) = (   0.0780549   0.0780549   0.2338884  )
       105        Pt     tau( 105) = (   0.0780549   0.2338884  -0.0780549  )
       106        Pt     tau( 106) = (   0.1538076   0.2317675   0.0000000  )
       107        Pt     tau( 107) = (   0.0780549   0.2338884   0.0780549  )
       108        Pt     tau( 108) = (   0.2317675  -0.1538076   0.0000000  )
       109        Pt     tau( 109) = (   0.2317675   0.0000000  -0.1538076  )
       110        Pt     tau( 110) = (   0.2338884  -0.0780549  -0.0780549  )
       111        Pt     tau( 111) = (   0.2370085   0.0000000   0.0000000  )
       112        Pt     tau( 112) = (   0.2338884  -0.0780549   0.0780549  )
       113        Pt     tau( 113) = (   0.2317675   0.0000000   0.1538076  )
       114        Pt     tau( 114) = (   0.2338884   0.0780549  -0.0780549  )
       115        Pt     tau( 115) = (   0.2317675   0.1538076   0.0000000  )
       116        Pt     tau( 116) = (   0.2338884   0.0780549   0.0780549  )
       117        H      tau( 117) = (  -0.2052477  -0.2052477  -0.1221536  )

   Crystallographic axes

     site n.     atom                  positions (cryst. coord.)
         1        Pt     tau(   1) = ( -0.2317675 -0.1538076  0.0000000  )
         2        Pt     tau(   2) = ( -0.1538076 -0.2317675  0.0000000  )
         3        Pt     tau(   3) = ( -0.1617552 -0.1617552 -0.0847262  )
         4        Pt     tau(   4) = ( -0.1617552 -0.1617552  0.0847262  )
         5        Pt     tau(   5) = ( -0.2317675  0.0000000 -0.1538076  )
[...]
     atom   11 type  1   force =     0.00000000    0.00000000    0.00000000
     atom   12 type  1   force =     0.00000000    0.00000000    0.00000000
     atom   13 type  1   force =     0.00000000    0.00000000    0.00000000
     atom   14 type  1   force =     0.00000000    0.00000000    0.00000000
     atom   15 type  1   force =     0.00000000    0.00000000    0.00000000
     atom   16 type  1   force =     0.00000000    0.00000000    0.00000000
     atom   17 type  1   force =     0.00000000    0.00000000    0.00000000
     atom   18 type  1   force =     0.00000000    0.00000000    0.00000000
     atom   19 type  1   force =     0.00000000    0.00000000    0.00000000
     atom   20 type  1   force =     0.00000000    0.00000000    0.00000000
     atom   21 type  1   force =     0.00000000    0.00000000    0.00000000
     atom   22 type  1   force =     0.00000000    0.00000000    0.00000000
     atom   23 type  1   force =     0.00000000    0.00000000    0.00000000
     atom   24 type  1   force =     0.00000000    0.00000000    0.00000000
     atom   25 type  1   force =     0.00000000    0.00000000    0.00000000
     atom   26 type  1   force =     0.00000000    0.00000000    0.00000000
     atom   27 type  1   force =     0.00000000    0.00000000    0.00000000
     atom   28 type  1   force =     0.00000000    0.00000000    0.00000000
     atom   29 type  1   force =     0.00000000    0.00000000    0.00000000
     atom   30 type  1   force =     0.00000000    0.00000000    0.00000000
     atom   31 type  1   force =     0.00000000    0.00000000    0.00000000
     atom   32 type  1   force =     0.00000000    0.00000000    0.00000000
     atom   33 type  1   force =     0.00000000    0.00000000    0.00000000
     atom   34 type  1   force =     0.00000000    0.00000000    0.00000000
     atom   35 type  1   force =     0.00000000    0.00000000    0.00000000
     atom   36 type  1   force =     0.00000000    0.00000000    0.00000000
     atom   37 type  1   force =     0.00000000    0.00000000    0.00000000
     atom   38 type  1   force =     0.00000000    0.00000000    0.00000000
     atom   39 type  1   force =     0.00000000    0.00000000    0.00000000
     atom   40 type  1   force =     0.00000000    0.00000000    0.00000000
     atom   41 type  1   force =     0.00000000    0.00000000    0.00000000
     atom   42 type  1   force =     0.00000000    0.00000000    0.00000000
     atom   43 type  1   force =     0.00000000    0.00000000    0.00000000
     atom   44 type  1   force =     0.00000000    0.00000000    0.00000000
     atom   45 type  1   force =     0.00000000    0.00000000    0.00000000
     atom   46 type  1   force =     0.00000000    0.00000000    0.00000000
     atom   47 type  1   force =     0.00000000    0.00000000    0.00000000
     atom   48 type  1   force =     0.00000000    0.00000000    0.00000000
     atom   49 type  1   force =     0.00000000    0.00000000    0.00000000
     atom   50 type  1   force =     0.00000000    0.00000000    0.00000000
     atom   51 type  1   force =     0.00000000    0.00000000    0.00000000
     atom   52 type  1   force =     0.00000000    0.00000000    0.00000000
     atom   53 type  1   force =     0.00000000    0.00000000    0.00000000
     atom   54 type  1   force =     0.00000000    0.00000000    0.00000000
     atom   55 type  1   force =     0.00000000    0.00000000    0.00000000
     atom   56 type  1   force =     0.00000000    0.00000000    0.00000000
     atom   57 type  1   force =     0.00000000    0.00000000    0.00000000
     atom   58 type  1   force =     0.00000000    0.00000000    0.00000000
     atom   59 type  1   force =     0.00000000    0.00000000    0.00000000
     atom   60 type  1   force =     0.00000000    0.00000000    0.00000000
[...]
     atom  103 type  1   force =     0.00000000    0.00000000    0.00000000
     atom  104 type  1   force =     0.00000000    0.00000000    0.00000000
     atom  105 type  1   force =     0.00000000    0.00000000    0.00000000
     atom  106 type  1   force =     0.00000000    0.00000000    0.00000000
     atom  107 type  1   force =     0.00000000    0.00000000    0.00000000
     atom  108 type  1   force =     0.00000000    0.00000000    0.00000000
     atom  109 type  1   force =     0.00000000    0.00000000    0.00000000
     atom  110 type  1   force =     0.00000000    0.00000000    0.00000000
     atom  111 type  1   force =     0.00000000    0.00000000    0.00000000
     atom  112 type  1   force =     0.00000000    0.00000000    0.00000000
     atom  113 type  1   force =     0.00000000    0.00000000    0.00000000
     atom  114 type  1   force =     0.00000000    0.00000000    0.00000000
     atom  115 type  1   force =     0.00000000    0.00000000    0.00000000
     atom  116 type  1   force =     0.00000000    0.00000000    0.00000000
     atom  117 type  2   force =     0.00000000    0.00000000    0.00000000
     The SCF correction term to forces
     atom    1 type  1   force =    -0.00001687    0.00000901    0.00002230
     atom    2 type  1   force =     0.00000900   -0.00001687    0.00002231
     atom    3 type  1   force =     0.00000464    0.00000467    0.00000944
     atom    4 type  1   force =    -0.00000849   -0.00000850    0.00000812
     atom    5 type  1   force =    -0.00002357   -0.00000374    0.00000023
     atom    6 type  1   force =     0.00000121    0.00000810    0.00000039
     atom    7 type  1   force =     0.00000887   -0.00000268   -0.00003085
     atom    8 type  1   force =    -0.00001922    0.00001863    0.00002610
     atom    9 type  1   force =    -0.00002433   -0.00001395    0.00001283
     atom   10 type  1   force =     0.00000499    0.00001284    0.00001082
     atom   11 type  1   force =     0.00000352   -0.00001779    0.00002024
     atom   12 type  1   force =    -0.00002945    0.00000672   -0.00000414
     atom   13 type  1   force =    -0.00003045   -0.00001479   -0.00000858
     atom   14 type  1   force =    -0.00002150   -0.00001667   -0.00000496
     atom   15 type  1   force =    -0.00001526   -0.00002444   -0.00001442
     atom   16 type  1   force =    -0.00003076   -0.00001275    0.00002098
     atom   17 type  1   force =    -0.00001445   -0.00000920   -0.00001574
     atom   18 type  1   force =    -0.00003455   -0.00002091    0.00001285
     atom   19 type  1   force =    -0.00004014   -0.00001018    0.00000680
     atom   20 type  1   force =    -0.00001356   -0.00003858    0.00000016
     atom   21 type  1   force =    -0.00002555   -0.00000184   -0.00001164
     atom   22 type  1   force =    -0.00004076   -0.00002618   -0.00000270
     atom   23 type  1   force =    -0.00003537   -0.00000650    0.00001235
     atom   24 type  1   force =    -0.00003567   -0.00000018    0.00001406
     atom   25 type  1   force =    -0.00002938    0.00002874    0.00000020
     atom   26 type  1   force =     0.00000809    0.00000122    0.00000038
     atom   27 type  1   force =    -0.00000374   -0.00002362    0.00000020
     atom   28 type  1   force =    -0.00000269    0.00000885   -0.00003086
     atom   29 type  1   force =     0.00001863   -0.00001924    0.00002610
     atom   30 type  1   force =     0.00001284    0.00000499    0.00001084
     atom   31 type  1   force =    -0.00001395   -0.00002433    0.00001285
     atom   32 type  1   force =    -0.00001779    0.00000353    0.00002026
     atom   33 type  1   force =     0.00000674   -0.00002944   -0.00000411
     atom   34 type  1   force =    -0.00001665   -0.00002151   -0.00000496
     atom   35 type  1   force =    -0.00001479   -0.00003043   -0.00000859
     atom   36 type  1   force =    -0.00002444   -0.00001526   -0.00001440
     atom   37 type  1   force =    -0.00001275   -0.00003076    0.00002095
     atom   38 type  1   force =     0.00001826    0.00001829   -0.00003118
     atom   39 type  1   force =    -0.00000546   -0.00002118   -0.00000028
     atom   40 type  1   force =    -0.00002121   -0.00000544   -0.00000026
     atom   41 type  1   force =    -0.00002528   -0.00002524   -0.00004444
     atom   42 type  1   force =     0.00001754    0.00001756    0.00003036
     atom   43 type  1   force =    -0.00000333   -0.00003121   -0.00000649
     atom   44 type  1   force =    -0.00003119   -0.00000333   -0.00000647
     atom   45 type  1   force =    -0.00003746   -0.00003745    0.00001938
     atom   46 type  1   force =    -0.00000256   -0.00000258   -0.00001936
     atom   47 type  1   force =    -0.00001211   -0.00002277   -0.00001285
     atom   48 type  1   force =    -0.00002276   -0.00001213   -0.00001285
     atom   49 type  1   force =    -0.00002975   -0.00002978   -0.00002227
     atom   50 type  1   force =    -0.00001634   -0.00001636    0.00002073
     atom   51 type  1   force =    -0.00000445   -0.00000446    0.00003158
     atom   52 type  1   force =    -0.00001173   -0.00002686   -0.00004688
     atom   53 type  1   force =    -0.00003048    0.00000199   -0.00002606
     atom   54 type  1   force =    -0.00003045   -0.00003559   -0.00001299
     atom   55 type  1   force =    -0.00002248   -0.00000137   -0.00005618
     atom   56 type  1   force =    -0.00001278   -0.00004432    0.00001147
     atom   57 type  1   force =    -0.00001692   -0.00001945    0.00000010
     atom   58 type  1   force =    -0.00003133   -0.00004449   -0.00000124
     atom   59 type  1   force =    -0.00002462   -0.00001240    0.00000252
     atom   60 type  1   force =    -0.00000711   -0.00003666   -0.00001524
[...]
     atom  103 type  1   force =     0.00002364    0.00002364    0.00003222
     atom  104 type  1   force =     0.00000073    0.00000072    0.00005041
     atom  105 type  1   force =    -0.00000595    0.00005131   -0.00000507
     atom  106 type  1   force =     0.00001786    0.00004770    0.00000811
     atom  107 type  1   force =     0.00000157    0.00004623    0.00001685
     atom  108 type  1   force =     0.00002872   -0.00002938    0.00000022
     atom  109 type  1   force =     0.00004198   -0.00001938   -0.00002560
     atom  110 type  1   force =     0.00003611   -0.00002120   -0.00000899
     atom  111 type  1   force =     0.00003943   -0.00001251    0.00000233
     atom  112 type  1   force =     0.00003646   -0.00001855    0.00001078
     atom  113 type  1   force =     0.00003854   -0.00000800    0.00003072
     atom  114 type  1   force =     0.00005130   -0.00000594   -0.00000506
     atom  115 type  1   force =     0.00004769    0.00001787    0.00000812
     atom  116 type  1   force =     0.00004621    0.00000157    0.00001687
     atom  117 type  2   force =    -0.00000029   -0.00000029    0.00000013

     Total force =     0.003874     Total SCF correction =     0.000423
     SCF correction compared to forces is large: reduce conv_thr to get better values
     Energy error            =      3.4E-05 Ry
     Gradient error          =      9.3E-04 Ry/Bohr

     bfgs converged in  15 scf cycles and  14 bfgs steps
     (criteria: energy <  1.0E-04 Ry, force <  1.0E-03 Ry/Bohr)

     End of BFGS Geometry Optimization

     Final energy             =  -24449.0280378992 Ry

     File ./out/calc.bfgs deleted, as requested
Begin final coordinates

ATOMIC_POSITIONS (angstrom)
Pt              -5.7822393453       -3.8312717106        0.0117239792
Pt              -3.8312717106       -5.7822393453        0.0117239792
Pt              -4.1456911307       -4.1456911307       -2.2017289340
Pt              -4.0571078072       -4.0571078072        2.1389122024
Pt              -5.7932979955        0.0050313287       -3.8408725740
Pt              -4.0535349025       -2.1170658889       -4.0574690860
Pt              -3.8369518128        0.0058046546       -5.7839436287
Pt              -5.8397823183       -1.9478025571       -1.9475362057
Pt              -5.9136371959        0.0047593385       -0.0004747649
Pt              -3.8831555716       -1.9803152919       -0.0168238694
Pt              -3.8853281332        0.0046546373       -1.9754289686
Pt              -5.8215303195       -1.9438005955        1.9569041548
Pt              -5.7884270925        0.0083788096        3.8414750702
Pt              -4.0476781043       -2.1183761176        4.0563817117
Pt              -3.8757004526        0.0074070054        1.9676562683
Pt              -3.8383217691        0.0052283477        5.7922016809
Pt              -4.0488776925        2.1283642585       -4.0502562932
Pt              -5.8380125098        1.9584117055       -1.9510542761
Pt              -5.7882516718        3.8441208144        0.0021345880
Pt              -3.8782325475        1.9684852158       -0.0017018679
Pt              -4.0490011136        4.0518472477       -2.1221588136
Pt              -5.8367421422        1.9549466308        1.9536142416
Pt              -4.0485132922        2.1279753108        4.0565593205
Pt              -4.0466981906        4.0477986543        2.1220982602
Pt              -3.8389419624        5.7913181921        0.0008860160
Pt              -2.1170658889       -4.0535349025       -4.0574690860
Pt               0.0050313287       -5.7932979955       -3.8408725740
Pt               0.0058046546       -3.8369518128       -5.7839436287
Pt              -1.9478025571       -5.8397823183       -1.9475362057
Pt              -1.9803152919       -3.8831555716       -0.0168238694
Pt               0.0047593385       -5.9136371959       -0.0004747649
Pt               0.0046546373       -3.8853281332       -1.9754289686
Pt              -1.9438005955       -5.8215303195        1.9569041548
Pt              -2.1183761176       -4.0476781043        4.0563817117
Pt               0.0083788096       -5.7884270925        3.8414750702
Pt               0.0074070054       -3.8757004526        1.9676562683
Pt               0.0052283477       -3.8383217691        5.7922016809
Pt              -1.9450367416       -1.9450367416       -5.8342398562
Pt              -1.9657133257       -0.0045864590       -3.8654155881
Pt              -0.0045864590       -1.9657133257       -3.8654155881
Pt               0.0020241987        0.0020241987       -5.9163049116
Pt              -2.0605831200       -2.0605831200       -2.0418095215
Pt              -1.9707095833       -0.0148724679       -0.0149775439
Pt              -0.0148724679       -1.9707095833       -0.0149775439
Pt               0.0081251808        0.0081251808       -1.9577725222
Pt              -2.0411429105       -2.0411429105        2.0200033050
Pt              -1.9727512235       -0.0061015395        3.8754133800
Pt              -0.0061015395       -1.9727512235        3.8754133800
Pt              -0.0091625373       -0.0091625373        1.9586012113
Pt              -1.9514509464       -1.9514509464        5.8392869385
Pt              -0.0015369105       -0.0015369105        5.9143365184
Pt              -1.9453755725        1.9433618078       -5.8314555535
Pt              -2.1208566147        4.0506957134       -4.0507655749
Pt               0.0030062516        1.9698947465       -3.8748836743
Pt               0.0004122211        3.8394926461       -5.7888744982
Pt              -2.0296005087        2.0302173531       -2.0303578115
Pt              -1.9692590059        3.8760002211       -0.0002483045
Pt              -0.0022079407        1.9592187110        0.0045948602
Pt               0.0023123282        3.8767164392       -1.9669986049
Pt              -2.0321618254        2.0250128833        2.0296883616
[...]
Pt               4.0532618765        4.0532618765        2.1250173358
Pt               1.9485915920        1.9485915920        5.8327664987
Pt               1.9502799712        5.8368686390       -1.9489888083
Pt               3.8442742018        5.7891343012       -0.0009521610
Pt               1.9519273508        5.8344779491        1.9495092392
Pt               5.7913181921       -3.8389419624        0.0008860160
Pt               5.7892367765       -0.0000986446       -3.8396517606
Pt               5.8345902439       -1.9489320561       -1.9496594763
Pt               5.9171304062        0.0016134709        0.0009987301
Pt               5.8363516791       -1.9497801698        1.9494758289
Pt               5.7893128595        0.0000483980        3.8396255731
Pt               5.8368686390        1.9502799712       -1.9489888083
Pt               5.7891343012        3.8442742018       -0.0009521610
Pt               5.8344779491        1.9519273508        1.9495092392
H               -5.0857505664       -5.0857505664       -3.0097001718
End final coordinates

     Writing all to output data dir ./out/calc.save/ :
     XML data file, charge density, pseudopotentials, collected wavefunctions

     General routines

     Parallel routines

   This run was terminated on:  14:20: 0   7May2025

   JOB DONE.