     Program PWSCF v.7.3.1 starts on 17Jan2025 at  5: 7:59

     Reading input from espresso.pwi
Warning: card   &CELL ignored
Warning: card      CELL_DOFREE = 'IBRAV' ignored
Warning: card / ignored

     Current dimensions of program PWSCF are:
     Max number of different atomic species (ntypx) = 10
     Max number of k-points (npk) =  40000
     Max angular momentum in pseudopotentials (lmaxx) =  4

     IMPORTANT: XC functional enforced from input :
     Exchange-correlation= RVV10
                           (   1   4  13   4  26   0   0)
     Any further DFT definition will be discarded
     Please, verify this is what you really want

     gamma-point specific algorithms are used
     Message from routine setup:
     using ibrav=0 with symmetry is DISCOURAGED, use correct ibrav instead

     R & G space division:  proc/nbgrp/npool/nimage =      36
     Subspace diagonalization in iterative solution of the eigenvalue problem:
     one sub-group per band group will be used

     Using Slab Decomposition

     Title:
     calc

     bravais-lattice index     =            0
     lattice parameter (alat)  =      34.0151  a.u.
     unit-cell volume          =   39356.2868 (a.u.)^3
     number of atoms/cell      =           56
     number of atomic types    =            2
     number of electrons       =       881.00
     number of Kohn-Sham states=          529
     kinetic-energy cutoff     =      60.0000  Ry
     charge density cutoff     =     480.0000  Ry
     scf convergence threshold =      1.0E-06
     mixing beta               =       0.2000
     number of iterations used =            8  plain     mixing
     energy convergence thresh.=      1.0E-04
     force convergence thresh. =      1.0E-03
     Exchange-correlation= RVV10
                           (   1   4  13   4  26   0   0)
     nstep                     =        10000

     celldm(1)=  34.015070  celldm(2)=   0.000000  celldm(3)=   0.000000
     celldm(4)=   0.000000  celldm(5)=   0.000000  celldm(6)=   0.000000

     crystal axes: (cart. coord. in units of alat)
               a(1) = (   1.000000   0.000000   0.000000 )
               a(2) = (   0.000000   1.000000   0.000000 )
               a(3) = (   0.000000   0.000000   1.000000 )

     reciprocal axes: (cart. coord. in units 2 pi/alat)
               b(1) = (  1.000000  0.000000  0.000000 )
               b(2) = (  0.000000  1.000000  0.000000 )
               b(3) = (  0.000000  0.000000  1.000000 )

     PseudoPot. # 1 for Pt read from file:
     /home/james/work/espresso/SSSP_1.3.0_PBE_efficiency/pt_pbe_v1.4.uspp.F.UPF
     MD5 check sum: f09d6de1a584b5a045c4fc126da2d0c4
     Pseudo is Ultrasoft + core correction, Zval = 16.0
     Generated by new atomic code, or converted to UPF format
     Using radial grid of  985 points,  6 beta functions with:
                l(1) =   0
                l(2) =   0
                l(3) =   1
                l(4) =   1
                l(5) =   2
                l(6) =   2
     Q(r) pseudized with  8 coefficients,  rinner =    1.300   1.300   1.300
                                                       1.300   1.300

     PseudoPot. # 2 for H  read from file:
     /home/james/work/espresso/SSSP_1.3.0_PBE_efficiency/H.pbe-rrkjus_psl.1.0.0.UPF
     MD5 check sum: f52b6d4d1c606e5624b1dc7b2218f220
     Pseudo is Ultrasoft, Zval =  1.0
     Generated using "atomic" code by A. Dal Corso  v.5.1
     Using radial grid of  929 points,  2 beta functions with:
                l(1) =   0
                l(2) =   0
     Q(r) pseudized with 0 coefficients

     atomic species   valence    mass     pseudopotential
     Pt               16.00   195.08400     Pt( 1.00)
     H                 1.00     1.00800     H ( 1.00)

     Starting magnetic structure
     atomic species   magnetization
     Pt              0.010
     H               0.020

      4 Sym. Ops. (no inversion) found

                                    s                        frac. trans.

      isym =  1     identity

 cryst.   s( 1) = (     1          0          0      )
                  (     0          1          0      )
                  (     0          0          1      )

 cart.    s( 1) = (  1.0000000  0.0000000  0.0000000 )
                  (  0.0000000  1.0000000  0.0000000 )
                  (  0.0000000  0.0000000  1.0000000 )

      isym =  2     180 deg rotation - cart. axis [1,1,0]

[...]

      isym =  3     inv. 180 deg rotation - cart. axis [0,0,1]

[...]

      isym =  4     inv. 180 deg rotation - cart. axis [1,-1,0]

 cryst.   s( 4) = (     0          1          0      )
                  (     1          0          0      )
                  (     0          0          1      )

 cart.    s( 4) = (  0.0000000  1.0000000  0.0000000 )
                  (  1.0000000  0.0000000  0.0000000 )
                  (  0.0000000  0.0000000  1.0000000 )

   Cartesian axes

     site n.     atom                  positions (alat units)
         1        Pt     tau(   1) = (  -0.2177778  -0.1088889  -0.1088889  )
         2        Pt     tau(   2) = (  -0.1088889  -0.2177778  -0.1088889  )
         3        Pt     tau(   3) = (  -0.1088889  -0.1088889  -0.2177778  )
         4        Pt     tau(   4) = (  -0.2177778  -0.2177778   0.0000000  )
         5        Pt     tau(   5) = (  -0.2177778  -0.1088889   0.1088889  )
         6        Pt     tau(   6) = (  -0.1088889  -0.2177778   0.1088889  )
         7        Pt     tau(   7) = (  -0.1088889  -0.1088889   0.0000000  )
         8        Pt     tau(   8) = (  -0.1088889  -0.1088889   0.2177778  )
         9        Pt     tau(   9) = (  -0.2177778   0.0000000  -0.2177778  )
        10        Pt     tau(  10) = (  -0.2177778   0.1088889  -0.1088889  )
        11        Pt     tau(  11) = (  -0.1088889   0.0000000  -0.1088889  )
        12        Pt     tau(  12) = (  -0.1088889   0.1088889  -0.2177778  )
        13        Pt     tau(  13) = (  -0.2177778   0.0000000   0.0000000  )
        14        Pt     tau(  14) = (  -0.2177778   0.1088889   0.1088889  )
        15        Pt     tau(  15) = (  -0.1088889   0.0000000   0.1088889  )
        16        Pt     tau(  16) = (  -0.1088889   0.1088889   0.0000000  )
        17        Pt     tau(  17) = (  -0.2177778   0.0000000   0.2177778  )
        18        Pt     tau(  18) = (  -0.1088889   0.1088889   0.2177778  )
        19        Pt     tau(  19) = (  -0.1088889   0.2177778  -0.1088889  )
        20        Pt     tau(  20) = (  -0.2177778   0.2177778   0.0000000  )
        21        Pt     tau(  21) = (  -0.1088889   0.2177778   0.1088889  )
        22        Pt     tau(  22) = (   0.0000000  -0.2177778  -0.2177778  )
        23        Pt     tau(  23) = (   0.0000000  -0.1088889  -0.1088889  )
        24        Pt     tau(  24) = (   0.1088889  -0.2177778  -0.1088889  )
        25        Pt     tau(  25) = (   0.1088889  -0.1088889  -0.2177778  )
        26        Pt     tau(  26) = (   0.0000000  -0.2177778   0.0000000  )
        27        Pt     tau(  27) = (   0.0000000  -0.1088889   0.1088889  )
        28        Pt     tau(  28) = (   0.1088889  -0.2177778   0.1088889  )
        29        Pt     tau(  29) = (   0.1088889  -0.1088889   0.0000000  )
        30        Pt     tau(  30) = (   0.0000000  -0.2177778   0.2177778  )
        31        Pt     tau(  31) = (   0.1088889  -0.1088889   0.2177778  )
        32        Pt     tau(  32) = (   0.0000000   0.0000000  -0.2177778  )
        33        Pt     tau(  33) = (   0.0000000   0.1088889  -0.1088889  )
        34        Pt     tau(  34) = (   0.1088889   0.0000000  -0.1088889  )
        35        Pt     tau(  35) = (   0.1088889   0.1088889  -0.2177778  )
        36        Pt     tau(  36) = (   0.0000000   0.0000000   0.0000000  )
        37        Pt     tau(  37) = (   0.0000000   0.1088889   0.1088889  )
        38        Pt     tau(  38) = (   0.1088889   0.0000000   0.1088889  )
        39        Pt     tau(  39) = (   0.1088889   0.1088889   0.0000000  )
        40        Pt     tau(  40) = (   0.0000000   0.0000000   0.2177778  )
        41        Pt     tau(  41) = (   0.1088889   0.1088889   0.2177778  )
        42        Pt     tau(  42) = (   0.0000000   0.2177778  -0.2177778  )
        43        Pt     tau(  43) = (   0.1088889   0.2177778  -0.1088889  )
        44        Pt     tau(  44) = (   0.0000000   0.2177778   0.0000000  )
        45        Pt     tau(  45) = (   0.1088889   0.2177778   0.1088889  )
        46        Pt     tau(  46) = (   0.0000000   0.2177778   0.2177778  )
        47        Pt     tau(  47) = (   0.2177778  -0.1088889  -0.1088889  )
        48        Pt     tau(  48) = (   0.2177778  -0.2177778   0.0000000  )
        49        Pt     tau(  49) = (   0.2177778  -0.1088889   0.1088889  )
        50        Pt     tau(  50) = (   0.2177778   0.0000000  -0.2177778  )
        51        Pt     tau(  51) = (   0.2177778   0.1088889  -0.1088889  )
        52        Pt     tau(  52) = (   0.2177778   0.0000000   0.0000000  )
        53        Pt     tau(  53) = (   0.2177778   0.1088889   0.1088889  )
        54        Pt     tau(  54) = (   0.2177778   0.0000000   0.2177778  )
        55        Pt     tau(  55) = (   0.2177778   0.2177778   0.0000000  )
        56        H      tau(  56) = (  -0.2884885  -0.2884885   0.0000000  )

   Crystallographic axes

     site n.     atom                  positions (cryst. coord.)
         1        Pt     tau(   1) = ( -0.2177778 -0.1088889 -0.1088889  )
         2        Pt     tau(   2) = ( -0.1088889 -0.2177778 -0.1088889  )
         3        Pt     tau(   3) = ( -0.1088889 -0.1088889 -0.2177778  )
         4        Pt     tau(   4) = ( -0.2177778 -0.2177778  0.0000000  )
         5        Pt     tau(   5) = ( -0.2177778 -0.1088889  0.1088889  )
         6        Pt     tau(   6) = ( -0.1088889 -0.2177778  0.1088889  )
         7        Pt     tau(   7) = ( -0.1088889 -0.1088889  0.0000000  )
         8        Pt     tau(   8) = ( -0.1088889 -0.1088889  0.2177778  )
         9        Pt     tau(   9) = ( -0.2177778  0.0000000 -0.2177778  )
        10        Pt     tau(  10) = ( -0.2177778  0.1088889 -0.1088889  )
        11        Pt     tau(  11) = ( -0.1088889  0.0000000 -0.1088889  )
        12        Pt     tau(  12) = ( -0.1088889  0.1088889 -0.2177778  )
        13        Pt     tau(  13) = ( -0.2177778  0.0000000  0.0000000  )
        14        Pt     tau(  14) = ( -0.2177778  0.1088889  0.1088889  )
        15        Pt     tau(  15) = ( -0.1088889  0.0000000  0.1088889  )
        16        Pt     tau(  16) = ( -0.1088889  0.1088889  0.0000000  )
        17        Pt     tau(  17) = ( -0.2177778  0.0000000  0.2177778  )
        18        Pt     tau(  18) = ( -0.1088889  0.1088889  0.2177778  )
        19        Pt     tau(  19) = ( -0.1088889  0.2177778 -0.1088889  )
        20        Pt     tau(  20) = ( -0.2177778  0.2177778  0.0000000  )
        21        Pt     tau(  21) = ( -0.1088889  0.2177778  0.1088889  )
        22        Pt     tau(  22) = (  0.0000000 -0.2177778 -0.2177778  )
        23        Pt     tau(  23) = (  0.0000000 -0.1088889 -0.1088889  )
[...]
     atom   12 type  1   force =     0.00803311   -0.00866760    0.02540311
     atom   13 type  1   force =     0.03023138   -0.00052539    0.00000000
     atom   14 type  1   force =     0.02547111   -0.00848345   -0.00868277
     atom   15 type  1   force =    -0.00411881    0.00098305    0.00534173
     atom   16 type  1   force =    -0.00446817    0.00413538    0.00000000
     atom   17 type  1   force =     0.01256708   -0.00004160   -0.01272261
     atom   18 type  1   force =     0.00803311   -0.00866755   -0.02540305
     atom   19 type  1   force =     0.00846385   -0.02557248    0.00855140
     atom   20 type  1   force =     0.01273394   -0.01281940   -0.00000001
     atom   21 type  1   force =     0.00846385   -0.02557246   -0.00855139
     atom   22 type  1   force =    -0.00004161    0.01256730    0.01272282
     atom   23 type  1   force =     0.00098304   -0.00411882   -0.00534172
     atom   24 type  1   force =    -0.00848349    0.02547116    0.00868277
     atom   25 type  1   force =    -0.00866759    0.00803310    0.02540308
     atom   26 type  1   force =    -0.00052538    0.03023138    0.00000000
     atom   27 type  1   force =     0.00098305   -0.00411882    0.00534172
     atom   28 type  1   force =    -0.00848345    0.02547111   -0.00868277
     atom   29 type  1   force =     0.00413538   -0.00446818   -0.00000000
     atom   30 type  1   force =    -0.00004159    0.01256709   -0.01272263
     atom   31 type  1   force =    -0.00866755    0.00803311   -0.02540307
     atom   32 type  1   force =     0.00022400    0.00022398    0.03016790
     atom   33 type  1   force =     0.00015058    0.00470618   -0.00448413
     atom   34 type  1   force =     0.00470619    0.00015057   -0.00448413
     atom   35 type  1   force =    -0.00841693   -0.00841694    0.02536349
     atom   36 type  1   force =     0.00054540    0.00054539   -0.00000001
     atom   37 type  1   force =     0.00015059    0.00470618    0.00448414
     atom   38 type  1   force =     0.00470619    0.00015058    0.00448413
     atom   39 type  1   force =     0.00265091    0.00265090    0.00000001
     atom   40 type  1   force =     0.00022401    0.00022400   -0.03016792
     atom   41 type  1   force =    -0.00841693   -0.00841694   -0.02536352
     atom   42 type  1   force =     0.00004628   -0.01255298    0.01259200
     atom   43 type  1   force =    -0.00828969   -0.02570556    0.00901696
     atom   44 type  1   force =    -0.00000292   -0.03049419    0.00000002
     atom   45 type  1   force =    -0.00828968   -0.02570557   -0.00901695
     atom   46 type  1   force =     0.00004630   -0.01255292   -0.01259197
     atom   47 type  1   force =    -0.02557246    0.00846384    0.00855140
     atom   48 type  1   force =    -0.01281939    0.01273393   -0.00000001
     atom   49 type  1   force =    -0.02557247    0.00846385   -0.00855139
     atom   50 type  1   force =    -0.01255293    0.00004628    0.01259195
     atom   51 type  1   force =    -0.02570554   -0.00828969    0.00901696
     atom   52 type  1   force =    -0.03049419   -0.00000294    0.00000001
     atom   53 type  1   force =    -0.02570557   -0.00828969   -0.00901695
     atom   54 type  1   force =    -0.01255295    0.00004629   -0.01259200
     atom   55 type  1   force =    -0.01327829   -0.01327829    0.00000001
     atom   56 type  2   force =     0.00000000    0.00000000    0.00000000
     The Hubbard contrib.    to forces
     atom    1 type  1   force =     0.00000000    0.00000000    0.00000000
     atom    2 type  1   force =     0.00000000    0.00000000    0.00000000
     atom    3 type  1   force =     0.00000000    0.00000000    0.00000000
     atom    4 type  1   force =     0.00000000    0.00000000    0.00000000
     atom    5 type  1   force =     0.00000000    0.00000000    0.00000000
     atom    6 type  1   force =     0.00000000    0.00000000    0.00000000
     atom    7 type  1   force =     0.00000000    0.00000000    0.00000000
     atom    8 type  1   force =     0.00000000    0.00000000    0.00000000
     atom    9 type  1   force =     0.00000000    0.00000000    0.00000000
     atom   10 type  1   force =     0.00000000    0.00000000    0.00000000
     atom   11 type  1   force =     0.00000000    0.00000000    0.00000000
     atom   12 type  1   force =     0.00000000    0.00000000    0.00000000
     atom   13 type  1   force =     0.00000000    0.00000000    0.00000000
     atom   14 type  1   force =     0.00000000    0.00000000    0.00000000
     atom   15 type  1   force =     0.00000000    0.00000000    0.00000000
     atom   16 type  1   force =     0.00000000    0.00000000    0.00000000
     atom   17 type  1   force =     0.00000000    0.00000000    0.00000000
     atom   18 type  1   force =     0.00000000    0.00000000    0.00000000
     atom   19 type  1   force =     0.00000000    0.00000000    0.00000000
     atom   20 type  1   force =     0.00000000    0.00000000    0.00000000
     atom   21 type  1   force =     0.00000000    0.00000000    0.00000000
     atom   22 type  1   force =     0.00000000    0.00000000    0.00000000
     atom   23 type  1   force =     0.00000000    0.00000000    0.00000000
     atom   24 type  1   force =     0.00000000    0.00000000    0.00000000
     atom   25 type  1   force =     0.00000000    0.00000000    0.00000000
     atom   26 type  1   force =     0.00000000    0.00000000    0.00000000
     atom   27 type  1   force =     0.00000000    0.00000000    0.00000000
     atom   28 type  1   force =     0.00000000    0.00000000    0.00000000
     atom   29 type  1   force =     0.00000000    0.00000000    0.00000000
     atom   30 type  1   force =     0.00000000    0.00000000    0.00000000
     atom   31 type  1   force =     0.00000000    0.00000000    0.00000000
     atom   32 type  1   force =     0.00000000    0.00000000    0.00000000
     atom   33 type  1   force =     0.00000000    0.00000000    0.00000000
     atom   34 type  1   force =     0.00000000    0.00000000    0.00000000
     atom   35 type  1   force =     0.00000000    0.00000000    0.00000000
     atom   36 type  1   force =     0.00000000    0.00000000    0.00000000
     atom   37 type  1   force =     0.00000000    0.00000000    0.00000000
     atom   38 type  1   force =     0.00000000    0.00000000    0.00000000
     atom   39 type  1   force =     0.00000000    0.00000000    0.00000000
     atom   40 type  1   force =     0.00000000    0.00000000    0.00000000
     atom   41 type  1   force =     0.00000000    0.00000000    0.00000000
     atom   42 type  1   force =     0.00000000    0.00000000    0.00000000
     atom   43 type  1   force =     0.00000000    0.00000000    0.00000000
     atom   44 type  1   force =     0.00000000    0.00000000    0.00000000
     atom   45 type  1   force =     0.00000000    0.00000000    0.00000000
     atom   46 type  1   force =     0.00000000    0.00000000    0.00000000
     atom   47 type  1   force =     0.00000000    0.00000000    0.00000000
     atom   48 type  1   force =     0.00000000    0.00000000    0.00000000
     atom   49 type  1   force =     0.00000000    0.00000000    0.00000000
     atom   50 type  1   force =     0.00000000    0.00000000    0.00000000
     atom   51 type  1   force =     0.00000000    0.00000000    0.00000000
     atom   52 type  1   force =     0.00000000    0.00000000    0.00000000
     atom   53 type  1   force =     0.00000000    0.00000000    0.00000000
     atom   54 type  1   force =     0.00000000    0.00000000    0.00000000
     atom   55 type  1   force =     0.00000000    0.00000000    0.00000000
     atom   56 type  2   force =     0.00000000    0.00000000    0.00000000
     The SCF correction term to forces
     atom    1 type  1   force =    -0.00000267    0.00002820   -0.00003454
     atom    2 type  1   force =     0.00003540   -0.00000479   -0.00003566
     atom    3 type  1   force =     0.00004203    0.00003354   -0.00004202
     atom    4 type  1   force =    -0.00002102   -0.00002376    0.00001872
     atom    5 type  1   force =     0.00001502    0.00003955    0.00006841
     atom    6 type  1   force =     0.00004044    0.00001412    0.00006563
     atom    7 type  1   force =     0.00005660    0.00005132    0.00003236
     atom    8 type  1   force =     0.00004245    0.00004429    0.00003240
     atom    9 type  1   force =     0.00002129    0.00003405   -0.00003095
     atom   10 type  1   force =     0.00002340    0.00003895   -0.00000210
     atom   11 type  1   force =     0.00004376    0.00005179   -0.00002519
     atom   12 type  1   force =     0.00000769   -0.00000676   -0.00000064
     atom   13 type  1   force =     0.00001416    0.00006204    0.00002695
     atom   14 type  1   force =     0.00003450    0.00002204    0.00003061
     atom   15 type  1   force =     0.00003679    0.00004253    0.00006787
     atom   16 type  1   force =     0.00000628    0.00002607    0.00002299
     atom   17 type  1   force =     0.00004070    0.00002745    0.00002549
     atom   18 type  1   force =     0.00000022   -0.00003077   -0.00000463
     atom   19 type  1   force =    -0.00001542   -0.00001302    0.00001429
     atom   20 type  1   force =     0.00001800   -0.00000037    0.00001247
     atom   21 type  1   force =    -0.00001835   -0.00002747    0.00000247
     atom   22 type  1   force =     0.00003871    0.00002195   -0.00002780
     atom   23 type  1   force =     0.00005956    0.00003631   -0.00002784
     atom   24 type  1   force =     0.00003738    0.00002665   -0.00000520
     atom   25 type  1   force =    -0.00000475    0.00000481    0.00000314
     atom   26 type  1   force =     0.00006400    0.00001440    0.00002075
     atom   27 type  1   force =     0.00004161    0.00003582    0.00006382
     atom   28 type  1   force =     0.00002166    0.00003290    0.00002461
     atom   29 type  1   force =     0.00002703    0.00000365    0.00001419
     atom   30 type  1   force =     0.00002605    0.00003939    0.00002431
     atom   31 type  1   force =    -0.00003169   -0.00000019   -0.00000483
     atom   32 type  1   force =     0.00000222   -0.00000703   -0.00000603
     atom   33 type  1   force =    -0.00002973   -0.00001873   -0.00000028
     atom   34 type  1   force =    -0.00001253   -0.00003743   -0.00000311
     atom   35 type  1   force =    -0.00002926   -0.00003696   -0.00000953
     atom   36 type  1   force =     0.00001571    0.00001137    0.00002272
     atom   37 type  1   force =    -0.00004755   -0.00003191    0.00002200
     atom   38 type  1   force =    -0.00003266   -0.00004653    0.00001802
     atom   39 type  1   force =    -0.00003870   -0.00004246    0.00000484
     atom   40 type  1   force =    -0.00002340   -0.00001996   -0.00000149
     atom   41 type  1   force =    -0.00004810   -0.00004500    0.00001221
     atom   42 type  1   force =    -0.00003236   -0.00001783   -0.00000115
     atom   43 type  1   force =    -0.00002883   -0.00000528   -0.00000287
     atom   44 type  1   force =    -0.00004909   -0.00001530    0.00000761
     atom   45 type  1   force =    -0.00003649   -0.00000721    0.00000922
     atom   46 type  1   force =    -0.00004458   -0.00003049    0.00000267
     atom   47 type  1   force =    -0.00001707   -0.00001501    0.00001085
     atom   48 type  1   force =    -0.00000288    0.00001924    0.00000641
     atom   49 type  1   force =    -0.00002669   -0.00001944   -0.00000336
     atom   50 type  1   force =    -0.00001895   -0.00003688    0.00000141
     atom   51 type  1   force =    -0.00000372   -0.00003493   -0.00000432
     atom   52 type  1   force =    -0.00001591   -0.00005085    0.00000112
     atom   53 type  1   force =    -0.00000701   -0.00003592    0.00000657
     atom   54 type  1   force =    -0.00002974   -0.00004310    0.00000217
     atom   55 type  1   force =     0.00000357    0.00000178   -0.00000000
     atom   56 type  2   force =    -0.00000311   -0.00000317    0.00000056

     Total force =     0.002813     Total SCF correction =     0.000375
     SCF correction compared to forces is large: reduce conv_thr to get better values
     Energy error            =      2.2E-05 Ry
     Gradient error          =      6.0E-04 Ry/Bohr

     bfgs converged in  16 scf cycles and  15 bfgs steps
     (criteria: energy <  1.0E-04 Ry, force <  1.0E-03 Ry/Bohr)

     End of BFGS Geometry Optimization

     Final energy             =  -11591.5363282138 Ry

     File ./out/calc.bfgs deleted, as requested
Begin final coordinates

ATOMIC_POSITIONS (angstrom)
Pt              -3.9576523109       -1.9315773065       -1.9072118736
Pt              -1.9315773065       -3.9576523109       -1.9072118736
Pt              -1.9174351319       -1.9174351319       -3.9167599508
Pt              -3.8561218393       -3.8561218393        0.0000000000
Pt              -3.9576523109       -1.9315773065        1.9072118736
Pt              -1.9315773065       -3.9576523109        1.9072118736
Pt              -1.9824811381       -1.9824811381        0.0000000000
Pt              -1.9174351319       -1.9174351319        3.9167599508
Pt              -3.7981004221       -0.0041998588       -3.8031838385
Pt              -3.9317376085        1.9085381135       -1.9049358231
Pt              -1.9361496690       -0.0156119870       -1.8970037323
Pt              -1.9092656910        1.8995619133       -3.9233680426
Pt              -4.1533110655       -0.0103906048        0.0000000000
Pt              -3.9317376085        1.9085381135        1.9049358231
Pt              -1.9361496690       -0.0156119870        1.8970037323
Pt              -1.9252969819        1.9300036533        0.0000000000
Pt              -3.7981004221       -0.0041998588        3.8031838385
Pt              -1.9092656910        1.8995619133        3.9233680426
Pt              -1.9069333659        3.9366526881       -1.9098180816
Pt              -3.8039204267        3.8118971372        0.0000000000
Pt              -1.9069333659        3.9366526881        1.9098180816
Pt              -0.0041998588       -3.7981004221       -3.8031838385
Pt              -0.0156119870       -1.9361496690       -1.8970037323
Pt               1.9085381135       -3.9317376085       -1.9049358231
Pt               1.8995619133       -1.9092656910       -3.9233680426
Pt              -0.0103906048       -4.1533110655        0.0000000000
Pt              -0.0156119870       -1.9361496690        1.8970037323
Pt               1.9085381135       -3.9317376085        1.9049358231
Pt               1.9300036533       -1.9252969819        0.0000000000
Pt              -0.0041998588       -3.7981004221        3.8031838385
Pt               1.8995619133       -1.9092656910        3.9233680426
Pt              -0.0073272249       -0.0073272249       -4.1174097874
Pt               0.0014130093        1.9275301129       -1.9202275567
Pt               1.9275301129        0.0014130093       -1.9202275567
Pt               1.9076485749        1.9076485749       -3.9314948955
Pt               0.0099452358        0.0099452358        0.0000000000
Pt               0.0014130093        1.9275301129        1.9202275567
Pt               1.9275301129        0.0014130093        1.9202275567
Pt               1.9448656271        1.9448656271        0.0000000000
Pt              -0.0073272249       -0.0073272249        4.1174097874
Pt               1.9076485749        1.9076485749        3.9314948955
Pt              -0.0007379736        3.8019306496       -3.8081395995
Pt               1.9182427978        3.9404275109       -1.9123307919
Pt               0.0075219868        4.1413329352        0.0000000000
Pt               1.9182427978        3.9404275109        1.9123307919
Pt              -0.0007379736        3.8019306496        3.8081395995
Pt               3.9366526881       -1.9069333659       -1.9098180816
Pt               3.8118971372       -3.8039204267        0.0000000000
Pt               3.9366526881       -1.9069333659        1.9098180816
Pt               3.8019306496       -0.0007379736       -3.8081395995
Pt               3.9404275109        1.9182427978       -1.9123307919
Pt               4.1413329352        0.0075219868        0.0000000000
Pt               3.9404275109        1.9182427978        1.9123307919
Pt               3.8019306496       -0.0007379736        3.8081395995
Pt               3.8198628679        3.8198628679        0.0000000000
H               -4.9771332275       -4.9771332275        0.0000000000
End final coordinates

     Writing all to output data dir ./out/calc.save/ :
     XML data file, charge density, pseudopotentials, collected wavefunctions

     General routines

     Parallel routines

   This run was terminated on:  22: 2:56  18Jan2025

   JOB DONE.