     Program PWSCF v.7.3.1 starts on 14May2025 at 16:28:34

     Reading input from espresso.pwi
Warning: card   &CELL ignored
Warning: card      CELL_DOFREE = 'IBRAV' ignored
Warning: card / ignored

     Current dimensions of program PWSCF are:
     Max number of different atomic species (ntypx) = 10
     Max number of k-points (npk) =  40000
     Max angular momentum in pseudopotentials (lmaxx) =  4
     Message from routine iosys:
     restart disabled: needed files not found

     IMPORTANT: XC functional enforced from input :
     Exchange-correlation= RVV10
                           (   1   4  13   4  26   0   0)
     Any further DFT definition will be discarded
     Please, verify this is what you really want

     Atomic positions and unit cell read from directory:
     ./out/calc.save/
     Message from routine qexsd_readschema :
     xml data file ./out/calc.save/data-file-schema.xml not found
     Nothing found: using input atomic positions and unit cell

     gamma-point specific algorithms are used
     Message from routine setup:
     using ibrav=0 with symmetry is DISCOURAGED, use correct ibrav instead

     R & G space division:  proc/nbgrp/npool/nimage =      36
     Subspace diagonalization in iterative solution of the eigenvalue problem:
     one sub-group per band group will be used

     Using Slab Decomposition

     Title:
     calc

     bravais-lattice index     =            0
     lattice parameter (alat)  =      47.2432  a.u.
     unit-cell volume          =  105442.7265 (a.u.)^3
     number of atoms/cell      =          117
     number of atomic types    =            2
     number of electrons       =      1857.00
     number of Kohn-Sham states=         1115
     kinetic-energy cutoff     =      60.0000  Ry
     charge density cutoff     =     480.0000  Ry
     scf convergence threshold =      1.0E-06
     mixing beta               =       0.1000
     number of iterations used =            8  local-TF  mixing
     energy convergence thresh.=      1.0E-04
     force convergence thresh. =      1.0E-03
     Exchange-correlation= RVV10
                           (   1   4  13   4  26   0   0)
     nstep                     =        10000

     celldm(1)=  47.243153  celldm(2)=   0.000000  celldm(3)=   0.000000
     celldm(4)=   0.000000  celldm(5)=   0.000000  celldm(6)=   0.000000

     crystal axes: (cart. coord. in units of alat)
               a(1) = (   1.000000   0.000000   0.000000 )
               a(2) = (   0.000000   1.000000   0.000000 )
               a(3) = (   0.000000   0.000000   1.000000 )

     reciprocal axes: (cart. coord. in units 2 pi/alat)
               b(1) = (  1.000000  0.000000  0.000000 )
               b(2) = (  0.000000  1.000000  0.000000 )
               b(3) = (  0.000000  0.000000  1.000000 )

     PseudoPot. # 1 for Pt read from file:
     /home/james/work/espresso/SSSP_1.3.0_PBE_efficiency/pt_pbe_v1.4.uspp.F.UPF
     MD5 check sum: f09d6de1a584b5a045c4fc126da2d0c4
     Pseudo is Ultrasoft + core correction, Zval = 16.0
     Generated by new atomic code, or converted to UPF format
     Using radial grid of  985 points,  6 beta functions with:
                l(1) =   0
                l(2) =   0
                l(3) =   1
                l(4) =   1
                l(5) =   2
                l(6) =   2
     Q(r) pseudized with  8 coefficients,  rinner =    1.300   1.300   1.300
                                                       1.300   1.300

     PseudoPot. # 2 for H  read from file:
     /home/james/work/espresso/SSSP_1.3.0_PBE_efficiency/H.pbe-rrkjus_psl.1.0.0.UPF
     MD5 check sum: f52b6d4d1c606e5624b1dc7b2218f220
     Pseudo is Ultrasoft, Zval =  1.0
     Generated using "atomic" code by A. Dal Corso  v.5.1
     Using radial grid of  929 points,  2 beta functions with:
                l(1) =   0
                l(2) =   0
     Q(r) pseudized with 0 coefficients

     atomic species   valence    mass     pseudopotential
     Pt               16.00   195.08400     Pt( 1.00)
     H                 1.00     1.00800     H ( 1.00)

     Starting magnetic structure
     atomic species   magnetization
     Pt              0.010
     H               0.020

      2 Sym. Ops. (no inversion) found

                                    s                        frac. trans.

      isym =  1     identity

 cryst.   s( 1) = (     1          0          0      )
                  (     0          1          0      )
                  (     0          0          1      )

 cart.    s( 1) = (  1.0000000  0.0000000  0.0000000 )
                  (  0.0000000  1.0000000  0.0000000 )
                  (  0.0000000  0.0000000  1.0000000 )

      isym =  2     inv. 180 deg rotation - cart. axis [0,0,1]

 cryst.   s( 2) = (     1          0          0      )
                  (     0          1          0      )
                  (     0          0         -1      )

 cart.    s( 2) = (  1.0000000  0.0000000  0.0000000 )
                  (  0.0000000  1.0000000  0.0000000 )
                  (  0.0000000  0.0000000 -1.0000000 )

   Cartesian axes

     site n.     atom                  positions (alat units)
         1        Pt     tau(   1) = (  -0.2317675  -0.1538076   0.0000000  )
         2        Pt     tau(   2) = (  -0.1538076  -0.2317675   0.0000000  )
         3        Pt     tau(   3) = (  -0.1617552  -0.1617552  -0.0847262  )
         4        Pt     tau(   4) = (  -0.1617552  -0.1617552   0.0847262  )
         5        Pt     tau(   5) = (  -0.2317675   0.0000000  -0.1538076  )
         6        Pt     tau(   6) = (  -0.1617552  -0.0847262  -0.1617552  )
         7        Pt     tau(   7) = (  -0.1538076   0.0000000  -0.2317675  )
         8        Pt     tau(   8) = (  -0.2338884  -0.0780549  -0.0780549  )
         9        Pt     tau(   9) = (  -0.2370085   0.0000000   0.0000000  )
        10        Pt     tau(  10) = (  -0.1554443  -0.0788784   0.0000000  )
        11        Pt     tau(  11) = (  -0.1554443   0.0000000  -0.0788784  )
        12        Pt     tau(  12) = (  -0.2338884  -0.0780549   0.0780549  )
        13        Pt     tau(  13) = (  -0.2317675   0.0000000   0.1538076  )
        14        Pt     tau(  14) = (  -0.1617552  -0.0847262   0.1617552  )
        15        Pt     tau(  15) = (  -0.1554443   0.0000000   0.0788784  )
        16        Pt     tau(  16) = (  -0.1538076   0.0000000   0.2317675  )
        17        Pt     tau(  17) = (  -0.1617552   0.0847262  -0.1617552  )
        18        Pt     tau(  18) = (  -0.2338884   0.0780549  -0.0780549  )
        19        Pt     tau(  19) = (  -0.2317675   0.1538076   0.0000000  )
        20        Pt     tau(  20) = (  -0.1554443   0.0788784   0.0000000  )
        21        Pt     tau(  21) = (  -0.1617552   0.1617552  -0.0847262  )
        22        Pt     tau(  22) = (  -0.2338884   0.0780549   0.0780549  )
        23        Pt     tau(  23) = (  -0.1617552   0.0847262   0.1617552  )
        24        Pt     tau(  24) = (  -0.1617552   0.1617552   0.0847262  )
        25        Pt     tau(  25) = (  -0.1538076   0.2317675   0.0000000  )
        26        Pt     tau(  26) = (  -0.0847262  -0.1617552  -0.1617552  )
        27        Pt     tau(  27) = (   0.0000000  -0.2317675  -0.1538076  )
        28        Pt     tau(  28) = (   0.0000000  -0.1538076  -0.2317675  )
        29        Pt     tau(  29) = (  -0.0780549  -0.2338884  -0.0780549  )
        30        Pt     tau(  30) = (  -0.0788784  -0.1554443   0.0000000  )
        31        Pt     tau(  31) = (   0.0000000  -0.2370085   0.0000000  )
        32        Pt     tau(  32) = (   0.0000000  -0.1554443  -0.0788784  )
        33        Pt     tau(  33) = (  -0.0780549  -0.2338884   0.0780549  )
        34        Pt     tau(  34) = (  -0.0847262  -0.1617552   0.1617552  )
        35        Pt     tau(  35) = (   0.0000000  -0.2317675   0.1538076  )
        36        Pt     tau(  36) = (   0.0000000  -0.1554443   0.0788784  )
        37        Pt     tau(  37) = (   0.0000000  -0.1538076   0.2317675  )
        38        Pt     tau(  38) = (  -0.0780549  -0.0780549  -0.2338884  )
        39        Pt     tau(  39) = (  -0.0788784   0.0000000  -0.1554443  )
        40        Pt     tau(  40) = (   0.0000000  -0.0788784  -0.1554443  )
        41        Pt     tau(  41) = (   0.0000000   0.0000000  -0.2370085  )
        42        Pt     tau(  42) = (  -0.0808740  -0.0808740  -0.0808740  )
        43        Pt     tau(  43) = (  -0.0786873   0.0000000   0.0000000  )
        44        Pt     tau(  44) = (   0.0000000  -0.0786873   0.0000000  )
        45        Pt     tau(  45) = (   0.0000000   0.0000000  -0.0786873  )
        46        Pt     tau(  46) = (  -0.0808740  -0.0808740   0.0808740  )
        47        Pt     tau(  47) = (  -0.0788784   0.0000000   0.1554443  )
        48        Pt     tau(  48) = (   0.0000000  -0.0788784   0.1554443  )
        49        Pt     tau(  49) = (   0.0000000   0.0000000   0.0786873  )
        50        Pt     tau(  50) = (  -0.0780549  -0.0780549   0.2338884  )
        51        Pt     tau(  51) = (   0.0000000   0.0000000   0.2370085  )
        52        Pt     tau(  52) = (  -0.0780549   0.0780549  -0.2338884  )
        53        Pt     tau(  53) = (  -0.0847262   0.1617552  -0.1617552  )
        54        Pt     tau(  54) = (   0.0000000   0.0788784  -0.1554443  )
        55        Pt     tau(  55) = (   0.0000000   0.1538076  -0.2317675  )
        56        Pt     tau(  56) = (  -0.0808740   0.0808740  -0.0808740  )
        57        Pt     tau(  57) = (  -0.0788784   0.1554443   0.0000000  )
        58        Pt     tau(  58) = (   0.0000000   0.0786873   0.0000000  )
        59        Pt     tau(  59) = (   0.0000000   0.1554443  -0.0788784  )
        60        Pt     tau(  60) = (  -0.0808740   0.0808740   0.0808740  )
[...]
       103        Pt     tau( 103) = (   0.1617552   0.1617552   0.0847262  )
       104        Pt     tau( 104) = (   0.0780549   0.0780549   0.2338884  )
       105        Pt     tau( 105) = (   0.0780549   0.2338884  -0.0780549  )
       106        Pt     tau( 106) = (   0.1538076   0.2317675   0.0000000  )
       107        Pt     tau( 107) = (   0.0780549   0.2338884   0.0780549  )
       108        Pt     tau( 108) = (   0.2317675  -0.1538076   0.0000000  )
       109        Pt     tau( 109) = (   0.2317675   0.0000000  -0.1538076  )
       110        Pt     tau( 110) = (   0.2338884  -0.0780549  -0.0780549  )
       111        Pt     tau( 111) = (   0.2370085   0.0000000   0.0000000  )
       112        Pt     tau( 112) = (   0.2338884  -0.0780549   0.0780549  )
       113        Pt     tau( 113) = (   0.2317675   0.0000000   0.1538076  )
       114        Pt     tau( 114) = (   0.2338884   0.0780549  -0.0780549  )
       115        Pt     tau( 115) = (   0.2317675   0.1538076   0.0000000  )
       116        Pt     tau( 116) = (   0.2338884   0.0780549   0.0780549  )
       117        H      tau( 117) = (  -0.2918710  -0.1934508   0.0000000  )

   Crystallographic axes

     site n.     atom                  positions (cryst. coord.)
         1        Pt     tau(   1) = ( -0.2317675 -0.1538076  0.0000000  )
[...]
     atom   10 type  1   force =     0.00000000    0.00000000    0.00000000
     atom   11 type  1   force =     0.00000000    0.00000000    0.00000000
     atom   12 type  1   force =     0.00000000    0.00000000    0.00000000
     atom   13 type  1   force =     0.00000000    0.00000000    0.00000000
     atom   14 type  1   force =     0.00000000    0.00000000    0.00000000
     atom   15 type  1   force =     0.00000000    0.00000000    0.00000000
     atom   16 type  1   force =     0.00000000    0.00000000    0.00000000
     atom   17 type  1   force =     0.00000000    0.00000000    0.00000000
     atom   18 type  1   force =     0.00000000    0.00000000    0.00000000
     atom   19 type  1   force =     0.00000000    0.00000000    0.00000000
     atom   20 type  1   force =     0.00000000    0.00000000    0.00000000
     atom   21 type  1   force =     0.00000000    0.00000000    0.00000000
     atom   22 type  1   force =     0.00000000    0.00000000    0.00000000
     atom   23 type  1   force =     0.00000000    0.00000000    0.00000000
     atom   24 type  1   force =     0.00000000    0.00000000    0.00000000
     atom   25 type  1   force =     0.00000000    0.00000000    0.00000000
     atom   26 type  1   force =     0.00000000    0.00000000    0.00000000
     atom   27 type  1   force =     0.00000000    0.00000000    0.00000000
     atom   28 type  1   force =     0.00000000    0.00000000    0.00000000
     atom   29 type  1   force =     0.00000000    0.00000000    0.00000000
     atom   30 type  1   force =     0.00000000    0.00000000    0.00000000
     atom   31 type  1   force =     0.00000000    0.00000000    0.00000000
     atom   32 type  1   force =     0.00000000    0.00000000    0.00000000
     atom   33 type  1   force =     0.00000000    0.00000000    0.00000000
     atom   34 type  1   force =     0.00000000    0.00000000    0.00000000
     atom   35 type  1   force =     0.00000000    0.00000000    0.00000000
     atom   36 type  1   force =     0.00000000    0.00000000    0.00000000
     atom   37 type  1   force =     0.00000000    0.00000000    0.00000000
     atom   38 type  1   force =     0.00000000    0.00000000    0.00000000
     atom   39 type  1   force =     0.00000000    0.00000000    0.00000000
     atom   40 type  1   force =     0.00000000    0.00000000    0.00000000
     atom   41 type  1   force =     0.00000000    0.00000000    0.00000000
     atom   42 type  1   force =     0.00000000    0.00000000    0.00000000
     atom   43 type  1   force =     0.00000000    0.00000000    0.00000000
     atom   44 type  1   force =     0.00000000    0.00000000    0.00000000
     atom   45 type  1   force =     0.00000000    0.00000000    0.00000000
     atom   46 type  1   force =     0.00000000    0.00000000    0.00000000
     atom   47 type  1   force =     0.00000000    0.00000000    0.00000000
     atom   48 type  1   force =     0.00000000    0.00000000    0.00000000
     atom   49 type  1   force =     0.00000000    0.00000000    0.00000000
     atom   50 type  1   force =     0.00000000    0.00000000    0.00000000
     atom   51 type  1   force =     0.00000000    0.00000000    0.00000000
     atom   52 type  1   force =     0.00000000    0.00000000    0.00000000
     atom   53 type  1   force =     0.00000000    0.00000000    0.00000000
     atom   54 type  1   force =     0.00000000    0.00000000    0.00000000
     atom   55 type  1   force =     0.00000000    0.00000000    0.00000000
     atom   56 type  1   force =     0.00000000    0.00000000    0.00000000
     atom   57 type  1   force =     0.00000000    0.00000000    0.00000000
     atom   58 type  1   force =     0.00000000    0.00000000    0.00000000
     atom   59 type  1   force =     0.00000000    0.00000000    0.00000000
     atom   60 type  1   force =     0.00000000    0.00000000    0.00000000
[...]
     atom  103 type  1   force =     0.00000000    0.00000000    0.00000000
     atom  104 type  1   force =     0.00000000    0.00000000    0.00000000
     atom  105 type  1   force =     0.00000000    0.00000000    0.00000000
     atom  106 type  1   force =     0.00000000    0.00000000    0.00000000
     atom  107 type  1   force =     0.00000000    0.00000000    0.00000000
     atom  108 type  1   force =     0.00000000    0.00000000    0.00000000
     atom  109 type  1   force =     0.00000000    0.00000000    0.00000000
     atom  110 type  1   force =     0.00000000    0.00000000    0.00000000
     atom  111 type  1   force =     0.00000000    0.00000000    0.00000000
     atom  112 type  1   force =     0.00000000    0.00000000    0.00000000
     atom  113 type  1   force =     0.00000000    0.00000000    0.00000000
     atom  114 type  1   force =     0.00000000    0.00000000    0.00000000
     atom  115 type  1   force =     0.00000000    0.00000000    0.00000000
     atom  116 type  1   force =     0.00000000    0.00000000    0.00000000
     atom  117 type  2   force =     0.00000000    0.00000000    0.00000000
     The SCF correction term to forces
     atom    1 type  1   force =     0.00010458   -0.00005257   -0.00000000
     atom    2 type  1   force =     0.00002546    0.00006818   -0.00000000
     atom    3 type  1   force =    -0.00000031   -0.00000585    0.00003818
     atom    4 type  1   force =    -0.00000031   -0.00000585   -0.00003818
     atom    5 type  1   force =     0.00001503    0.00001345    0.00003663
     atom    6 type  1   force =    -0.00001062   -0.00001390    0.00003401
     atom    7 type  1   force =    -0.00001471    0.00001492    0.00001245
     atom    8 type  1   force =     0.00004556    0.00003128    0.00000740
     atom    9 type  1   force =    -0.00003162    0.00001018   -0.00000000
     atom   10 type  1   force =     0.00000466   -0.00001687   -0.00000000
     atom   11 type  1   force =    -0.00000183    0.00000760    0.00001276
     atom   12 type  1   force =     0.00004556    0.00003128   -0.00000741
     atom   13 type  1   force =     0.00001504    0.00001345   -0.00003664
     atom   14 type  1   force =    -0.00001061   -0.00001390   -0.00003401
     atom   15 type  1   force =    -0.00000183    0.00000760   -0.00001277
     atom   16 type  1   force =    -0.00001470    0.00001493   -0.00001244
     atom   17 type  1   force =    -0.00002339    0.00000696    0.00002031
     atom   18 type  1   force =     0.00002234   -0.00002039    0.00002548
     atom   19 type  1   force =     0.00000929   -0.00003690    0.00000000
     atom   20 type  1   force =    -0.00001347   -0.00001727   -0.00000000
     atom   21 type  1   force =    -0.00000890   -0.00001134    0.00000747
     atom   22 type  1   force =     0.00002234   -0.00002038   -0.00002548
     atom   23 type  1   force =    -0.00002338    0.00000697   -0.00002031
     atom   24 type  1   force =    -0.00000890   -0.00001134   -0.00000746
     atom   25 type  1   force =    -0.00002138   -0.00003122    0.00000000
     atom   26 type  1   force =    -0.00000294   -0.00000532    0.00004235
     atom   27 type  1   force =    -0.00000727    0.00001375    0.00004365
     atom   28 type  1   force =     0.00000914   -0.00002422    0.00002622
     atom   29 type  1   force =    -0.00000215   -0.00000190    0.00003485
     atom   30 type  1   force =    -0.00001712   -0.00000655   -0.00000000
     atom   31 type  1   force =    -0.00003541   -0.00001120   -0.00000000
     atom   32 type  1   force =    -0.00001119    0.00000142    0.00002224
     atom   33 type  1   force =    -0.00000215   -0.00000189   -0.00003485
     atom   34 type  1   force =    -0.00000294   -0.00000533   -0.00004235
     atom   35 type  1   force =    -0.00000727    0.00001375   -0.00004365
     atom   36 type  1   force =    -0.00001119    0.00000142   -0.00002225
     atom   37 type  1   force =     0.00000914   -0.00002422   -0.00002622
     atom   38 type  1   force =    -0.00000802   -0.00000202    0.00002038
     atom   39 type  1   force =    -0.00000235   -0.00000274    0.00005691
     atom   40 type  1   force =    -0.00000436    0.00001478    0.00005060
     atom   41 type  1   force =     0.00002165    0.00001683    0.00003494
     atom   42 type  1   force =     0.00001383   -0.00000243    0.00002198
     atom   43 type  1   force =    -0.00000256   -0.00001526   -0.00000000
     atom   44 type  1   force =    -0.00001218    0.00000140   -0.00000001
     atom   45 type  1   force =    -0.00000612   -0.00000771    0.00001428
     atom   46 type  1   force =     0.00001383   -0.00000243   -0.00002199
     atom   47 type  1   force =    -0.00000235   -0.00000273   -0.00005691
     atom   48 type  1   force =    -0.00000436    0.00001478   -0.00005060
     atom   49 type  1   force =    -0.00000613   -0.00000771   -0.00001428
     atom   50 type  1   force =    -0.00000802   -0.00000202   -0.00002038
     atom   51 type  1   force =     0.00002165    0.00001684   -0.00003494
     atom   52 type  1   force =    -0.00000086    0.00002023    0.00003977
     atom   53 type  1   force =     0.00000453   -0.00000472    0.00001727
     atom   54 type  1   force =     0.00000508   -0.00000155    0.00002488
     atom   55 type  1   force =     0.00001987    0.00002831    0.00003790
     atom   56 type  1   force =    -0.00000088   -0.00001936    0.00001561
     atom   57 type  1   force =     0.00000605   -0.00001161   -0.00000000
     atom   58 type  1   force =     0.00000458   -0.00001328   -0.00000001
     atom   59 type  1   force =     0.00000720   -0.00000936    0.00000268
     atom   60 type  1   force =    -0.00000088   -0.00001935   -0.00001562
[...]
     atom  103 type  1   force =    -0.00001542   -0.00000602    0.00000774
     atom  104 type  1   force =     0.00002659    0.00002494   -0.00003740
     atom  105 type  1   force =    -0.00000580   -0.00002116   -0.00000009
     atom  106 type  1   force =    -0.00000876   -0.00001160    0.00000000
     atom  107 type  1   force =    -0.00000580   -0.00002117    0.00000009
     atom  108 type  1   force =    -0.00001911    0.00000388    0.00000000
     atom  109 type  1   force =    -0.00002507    0.00000240    0.00000425
     atom  110 type  1   force =    -0.00002661    0.00000221   -0.00000254
     atom  111 type  1   force =    -0.00001865   -0.00000413    0.00000001
     atom  112 type  1   force =    -0.00002661    0.00000221    0.00000254
     atom  113 type  1   force =    -0.00002507    0.00000240   -0.00000424
     atom  114 type  1   force =    -0.00001913    0.00000274   -0.00001064
     atom  115 type  1   force =    -0.00001833    0.00000197    0.00000001
     atom  116 type  1   force =    -0.00001911    0.00000274    0.00001065
     atom  117 type  2   force =     0.00000436   -0.00000021   -0.00000000

     Total force =     0.003952     Total SCF correction =     0.000361
     Energy error            =      3.5E-05 Ry
     Gradient error          =      9.6E-04 Ry/Bohr

     bfgs converged in  18 scf cycles and  17 bfgs steps
     (criteria: energy <  1.0E-04 Ry, force <  1.0E-03 Ry/Bohr)

     End of BFGS Geometry Optimization

     Final energy             =  -24449.0237050764 Ry

     File ./out/calc.bfgs deleted, as requested
Begin final coordinates

ATOMIC_POSITIONS (angstrom)
Pt              -5.8692643722       -3.8898419878        0.0000000000
Pt              -3.8601964098       -5.8127284373        0.0000000000
Pt              -4.0635069564       -4.0560465074       -2.1044996595
Pt              -4.0635069564       -4.0560465074        2.1044996595
Pt              -5.7830463805        0.0007560788       -3.8249260595
Pt              -4.0506017172       -2.1232705556       -4.0249424798
Pt              -3.8455471577       -0.0055261983       -5.7781355791
Pt              -5.8487420280       -1.9594921141       -1.9299125000
Pt              -5.9339652701        0.0123530871        0.0000000000
Pt              -3.9166188868       -2.0106504583        0.0000000000
Pt              -3.8815574628       -0.0069604243       -1.9354248422
Pt              -5.8487420280       -1.9594921141        1.9299125000
Pt              -5.7830463805        0.0007560788        3.8249260595
Pt              -4.0506017172       -2.1232705556        4.0249424798
Pt              -3.8815574628       -0.0069604243        1.9354248422
Pt              -3.8455471577       -0.0055261983        5.7781355791
Pt              -4.0545985406        2.1225479062       -4.0446505695
Pt              -5.8370084420        1.9562199539       -1.9468120647
Pt              -5.7987453047        3.8526565700        0.0000000000
Pt              -3.8789440137        1.9858378562        0.0000000000
Pt              -4.0551577670        4.0569418898       -2.1223687036
Pt              -5.8370084420        1.9562199539        1.9468120647
Pt              -4.0545985406        2.1225479062        4.0446505695
Pt              -4.0551577670        4.0569418898        2.1223687036
Pt              -3.8392252434        5.7878115825        0.0000000000
Pt              -2.1220811286       -4.0464941797       -4.0244804730
Pt              -0.0039650974       -5.7907453168       -3.8323800814
Pt              -0.0080356518       -3.8384683891       -5.7774112587
Pt              -1.9594280981       -5.8418308501       -1.9393458560
Pt              -1.9762576149       -3.8922786883        0.0000000000
Pt               0.0048750351       -5.9207491599        0.0000000000
Pt              -0.0008074799       -3.8770660226       -1.9626344011
Pt              -1.9594280981       -5.8418308501        1.9393458560
Pt              -2.1220811286       -4.0464941797        4.0244804730
Pt              -0.0039650974       -5.7907453168        3.8323800814
Pt              -0.0008074799       -3.8770660226        1.9626344011
Pt              -0.0080356518       -3.8384683891        5.7774112587
Pt              -1.9611885223       -1.9549657773       -5.8223696695
Pt              -1.9782064136       -0.0044461208       -3.8589991437
Pt              -0.0038121622       -1.9674871421       -3.8684017597
Pt              -0.0073075245       -0.0067049404       -5.9092559480
Pt              -2.0366662742       -2.0246749477       -1.9959303302
Pt              -1.9344994180        0.0409436940        0.0000000000
Pt               0.0067482712       -1.9584564369        0.0000000000
Pt               0.0105417846        0.0055424671       -1.9625150722
Pt              -2.0366662742       -2.0246749477        1.9959303302
Pt              -1.9782064136       -0.0044461208        3.8589991437
Pt              -0.0038121622       -1.9674871421        3.8684017597
Pt               0.0105417846        0.0055424671        1.9625150722
Pt              -1.9611885223       -1.9549657773        5.8223696695
Pt              -0.0073075245       -0.0067049404        5.9092559480
Pt              -1.9541400414        1.9450711448       -5.8297474392
Pt              -2.1268986841        4.0512017893       -4.0490515177
Pt              -0.0024473139        1.9653486473       -3.8773592247
Pt              -0.0032870760        3.8383007609       -5.7851542231
Pt              -2.0325401924        2.0386367735       -2.0320287143
Pt              -1.9567653114        3.8823296678        0.0000000000
Pt               0.0286248124        1.9835410514        0.0000000000
Pt               0.0074884118        3.8809966210       -1.9796539214
Pt              -2.0325401924        2.0386367735        2.0320287143
[...]
Pt               4.0568159484        4.0588208975        2.1338702809
Pt               1.9475698466        1.9471757585        5.8345256026
Pt               1.9538924490        5.8401664880       -1.9549317419
Pt               3.8351327500        5.7857780312        0.0000000000
Pt               1.9538924490        5.8401664880        1.9549317419
Pt               5.7876854712       -3.8428444935        0.0000000000
Pt               5.7926722039        0.0001268267       -3.8427993935
Pt               5.8375335229       -1.9542096366       -1.9538993257
Pt               5.9157651664       -0.0025911654        0.0000000000
Pt               5.8375335229       -1.9542096366        1.9538993257
Pt               5.7926722039        0.0001268267        3.8427993935
Pt               5.8325482332        1.9505135671       -1.9497118882
Pt               5.7806286218        3.8449223158        0.0000000000
Pt               5.8325482332        1.9505135671        1.9497118882
H               -7.1497292389       -4.8099155385        0.0000000000
End final coordinates

     Writing all to output data dir ./out/calc.save/ :
     XML data file, charge density, pseudopotentials, collected wavefunctions

     General routines

     Parallel routines

   This run was terminated on:  14:15: 2  24May2025

   JOB DONE.