     Program PWSCF v.7.3.1 starts on 17Jan2025 at  4:10: 9

     Reading input from espresso.pwi
Warning: card   &CELL ignored
Warning: card      CELL_DOFREE = 'IBRAV' ignored
Warning: card / ignored

     Current dimensions of program PWSCF are:
     Max number of different atomic species (ntypx) = 10
     Max number of k-points (npk) =  40000
     Max angular momentum in pseudopotentials (lmaxx) =  4

     IMPORTANT: XC functional enforced from input :
     Exchange-correlation= RVV10
                           (   1   4  13   4  26   0   0)
     Any further DFT definition will be discarded
     Please, verify this is what you really want

     gamma-point specific algorithms are used
     Message from routine setup:
     using ibrav=0 with symmetry is DISCOURAGED, use correct ibrav instead

     R & G space division:  proc/nbgrp/npool/nimage =      36
     Subspace diagonalization in iterative solution of the eigenvalue problem:
     one sub-group per band group will be used

     Using Slab Decomposition

     Title:
     calc

     bravais-lattice index     =            0
     lattice parameter (alat)  =      34.0151  a.u.
     unit-cell volume          =   39356.2868 (a.u.)^3
     number of atoms/cell      =           56
     number of atomic types    =            2
     number of electrons       =       881.00
     number of Kohn-Sham states=          529
     kinetic-energy cutoff     =      60.0000  Ry
     charge density cutoff     =     480.0000  Ry
     scf convergence threshold =      1.0E-06
     mixing beta               =       0.2000
     number of iterations used =            8  plain     mixing
     energy convergence thresh.=      1.0E-04
     force convergence thresh. =      1.0E-03
     Exchange-correlation= RVV10
                           (   1   4  13   4  26   0   0)
     nstep                     =        10000

     celldm(1)=  34.015070  celldm(2)=   0.000000  celldm(3)=   0.000000
     celldm(4)=   0.000000  celldm(5)=   0.000000  celldm(6)=   0.000000

     crystal axes: (cart. coord. in units of alat)
               a(1) = (   1.000000   0.000000   0.000000 )
               a(2) = (   0.000000   1.000000   0.000000 )
               a(3) = (   0.000000   0.000000   1.000000 )

     reciprocal axes: (cart. coord. in units 2 pi/alat)
               b(1) = (  1.000000  0.000000  0.000000 )
               b(2) = (  0.000000  1.000000  0.000000 )
               b(3) = (  0.000000  0.000000  1.000000 )

     PseudoPot. # 1 for Pt read from file:
     /home/james/work/espresso/SSSP_1.3.0_PBE_efficiency/pt_pbe_v1.4.uspp.F.UPF
     MD5 check sum: f09d6de1a584b5a045c4fc126da2d0c4
     Pseudo is Ultrasoft + core correction, Zval = 16.0
     Generated by new atomic code, or converted to UPF format
     Using radial grid of  985 points,  6 beta functions with:
                l(1) =   0
                l(2) =   0
                l(3) =   1
                l(4) =   1
                l(5) =   2
                l(6) =   2
     Q(r) pseudized with  8 coefficients,  rinner =    1.300   1.300   1.300
                                                       1.300   1.300

     PseudoPot. # 2 for H  read from file:
     /home/james/work/espresso/SSSP_1.3.0_PBE_efficiency/H.pbe-rrkjus_psl.1.0.0.UPF
     MD5 check sum: f52b6d4d1c606e5624b1dc7b2218f220
     Pseudo is Ultrasoft, Zval =  1.0
     Generated using "atomic" code by A. Dal Corso  v.5.1
     Using radial grid of  929 points,  2 beta functions with:
                l(1) =   0
                l(2) =   0
     Q(r) pseudized with 0 coefficients

     atomic species   valence    mass     pseudopotential
     Pt               16.00   195.08400     Pt( 1.00)
     H                 1.00     1.00800     H ( 1.00)

     Starting magnetic structure
     atomic species   magnetization
     Pt              0.010
     H               0.020

      2 Sym. Ops. (no inversion) found

                                    s                        frac. trans.

      isym =  1     identity

 cryst.   s( 1) = (     1          0          0      )
                  (     0          1          0      )
                  (     0          0          1      )

 cart.    s( 1) = (  1.0000000  0.0000000  0.0000000 )
                  (  0.0000000  1.0000000  0.0000000 )
                  (  0.0000000  0.0000000  1.0000000 )

      isym =  2     inv. 180 deg rotation - cart. axis [0,1,-1]

 cryst.   s( 2) = (     1          0          0      )
                  (     0          0          1      )
                  (     0          1          0      )

 cart.    s( 2) = (  1.0000000  0.0000000  0.0000000 )
                  (  0.0000000  0.0000000  1.0000000 )
                  (  0.0000000  1.0000000  0.0000000 )

   Cartesian axes

     site n.     atom                  positions (alat units)
         1        Pt     tau(   1) = (  -0.2177778  -0.1088889  -0.1088889  )
         2        Pt     tau(   2) = (  -0.1088889  -0.2177778  -0.1088889  )
         3        Pt     tau(   3) = (  -0.1088889  -0.1088889  -0.2177778  )
         4        Pt     tau(   4) = (  -0.2177778  -0.2177778   0.0000000  )
         5        Pt     tau(   5) = (  -0.2177778  -0.1088889   0.1088889  )
         6        Pt     tau(   6) = (  -0.1088889  -0.2177778   0.1088889  )
         7        Pt     tau(   7) = (  -0.1088889  -0.1088889   0.0000000  )
         8        Pt     tau(   8) = (  -0.1088889  -0.1088889   0.2177778  )
         9        Pt     tau(   9) = (  -0.2177778   0.0000000  -0.2177778  )
        10        Pt     tau(  10) = (  -0.2177778   0.1088889  -0.1088889  )
        11        Pt     tau(  11) = (  -0.1088889   0.0000000  -0.1088889  )
        12        Pt     tau(  12) = (  -0.1088889   0.1088889  -0.2177778  )
        13        Pt     tau(  13) = (  -0.2177778   0.0000000   0.0000000  )
        14        Pt     tau(  14) = (  -0.2177778   0.1088889   0.1088889  )
        15        Pt     tau(  15) = (  -0.1088889   0.0000000   0.1088889  )
        16        Pt     tau(  16) = (  -0.1088889   0.1088889   0.0000000  )
        17        Pt     tau(  17) = (  -0.2177778   0.0000000   0.2177778  )
        18        Pt     tau(  18) = (  -0.1088889   0.1088889   0.2177778  )
        19        Pt     tau(  19) = (  -0.1088889   0.2177778  -0.1088889  )
        20        Pt     tau(  20) = (  -0.2177778   0.2177778   0.0000000  )
        21        Pt     tau(  21) = (  -0.1088889   0.2177778   0.1088889  )
        22        Pt     tau(  22) = (   0.0000000  -0.2177778  -0.2177778  )
        23        Pt     tau(  23) = (   0.0000000  -0.1088889  -0.1088889  )
        24        Pt     tau(  24) = (   0.1088889  -0.2177778  -0.1088889  )
        25        Pt     tau(  25) = (   0.1088889  -0.1088889  -0.2177778  )
        26        Pt     tau(  26) = (   0.0000000  -0.2177778   0.0000000  )
        27        Pt     tau(  27) = (   0.0000000  -0.1088889   0.1088889  )
        28        Pt     tau(  28) = (   0.1088889  -0.2177778   0.1088889  )
        29        Pt     tau(  29) = (   0.1088889  -0.1088889   0.0000000  )
        30        Pt     tau(  30) = (   0.0000000  -0.2177778   0.2177778  )
        31        Pt     tau(  31) = (   0.1088889  -0.1088889   0.2177778  )
        32        Pt     tau(  32) = (   0.0000000   0.0000000  -0.2177778  )
        33        Pt     tau(  33) = (   0.0000000   0.1088889  -0.1088889  )
        34        Pt     tau(  34) = (   0.1088889   0.0000000  -0.1088889  )
        35        Pt     tau(  35) = (   0.1088889   0.1088889  -0.2177778  )
        36        Pt     tau(  36) = (   0.0000000   0.0000000   0.0000000  )
        37        Pt     tau(  37) = (   0.0000000   0.1088889   0.1088889  )
        38        Pt     tau(  38) = (   0.1088889   0.0000000   0.1088889  )
        39        Pt     tau(  39) = (   0.1088889   0.1088889   0.0000000  )
        40        Pt     tau(  40) = (   0.0000000   0.0000000   0.2177778  )
        41        Pt     tau(  41) = (   0.1088889   0.1088889   0.2177778  )
        42        Pt     tau(  42) = (   0.0000000   0.2177778  -0.2177778  )
        43        Pt     tau(  43) = (   0.1088889   0.2177778  -0.1088889  )
        44        Pt     tau(  44) = (   0.0000000   0.2177778   0.0000000  )
        45        Pt     tau(  45) = (   0.1088889   0.2177778   0.1088889  )
        46        Pt     tau(  46) = (   0.0000000   0.2177778   0.2177778  )
        47        Pt     tau(  47) = (   0.2177778  -0.1088889  -0.1088889  )
        48        Pt     tau(  48) = (   0.2177778  -0.2177778   0.0000000  )
        49        Pt     tau(  49) = (   0.2177778  -0.1088889   0.1088889  )
        50        Pt     tau(  50) = (   0.2177778   0.0000000  -0.2177778  )
        51        Pt     tau(  51) = (   0.2177778   0.1088889  -0.1088889  )
        52        Pt     tau(  52) = (   0.2177778   0.0000000   0.0000000  )
        53        Pt     tau(  53) = (   0.2177778   0.1088889   0.1088889  )
        54        Pt     tau(  54) = (   0.2177778   0.0000000   0.2177778  )
        55        Pt     tau(  55) = (   0.2177778   0.2177778   0.0000000  )
        56        H      tau(  56) = (  -0.2972200  -0.0722402  -0.0722402  )

   Crystallographic axes

     site n.     atom                  positions (cryst. coord.)
         1        Pt     tau(   1) = ( -0.2177778 -0.1088889 -0.1088889  )
         2        Pt     tau(   2) = ( -0.1088889 -0.2177778 -0.1088889  )
         3        Pt     tau(   3) = ( -0.1088889 -0.1088889 -0.2177778  )
         4        Pt     tau(   4) = ( -0.2177778 -0.2177778  0.0000000  )
         5        Pt     tau(   5) = ( -0.2177778 -0.1088889  0.1088889  )
         6        Pt     tau(   6) = ( -0.1088889 -0.2177778  0.1088889  )
         7        Pt     tau(   7) = ( -0.1088889 -0.1088889  0.0000000  )
         8        Pt     tau(   8) = ( -0.1088889 -0.1088889  0.2177778  )
         9        Pt     tau(   9) = ( -0.2177778  0.0000000 -0.2177778  )
        10        Pt     tau(  10) = ( -0.2177778  0.1088889 -0.1088889  )
        11        Pt     tau(  11) = ( -0.1088889  0.0000000 -0.1088889  )
        12        Pt     tau(  12) = ( -0.1088889  0.1088889 -0.2177778  )
        13        Pt     tau(  13) = ( -0.2177778  0.0000000  0.0000000  )
        14        Pt     tau(  14) = ( -0.2177778  0.1088889  0.1088889  )
        15        Pt     tau(  15) = ( -0.1088889  0.0000000  0.1088889  )
        16        Pt     tau(  16) = ( -0.1088889  0.1088889  0.0000000  )
        17        Pt     tau(  17) = ( -0.2177778  0.0000000  0.2177778  )
        18        Pt     tau(  18) = ( -0.1088889  0.1088889  0.2177778  )
        19        Pt     tau(  19) = ( -0.1088889  0.2177778 -0.1088889  )
        20        Pt     tau(  20) = ( -0.2177778  0.2177778  0.0000000  )
        21        Pt     tau(  21) = ( -0.1088889  0.2177778  0.1088889  )
        22        Pt     tau(  22) = (  0.0000000 -0.2177778 -0.2177778  )
        23        Pt     tau(  23) = (  0.0000000 -0.1088889 -0.1088889  )
        24        Pt     tau(  24) = (  0.1088889 -0.2177778 -0.1088889  )
        25        Pt     tau(  25) = (  0.1088889 -0.1088889 -0.2177778  )
[...]
     atom   12 type  1   force =     0.00790518   -0.00888453    0.02507116
     atom   13 type  1   force =     0.02754788    0.00049578    0.00049571
     atom   14 type  1   force =     0.02428447   -0.00659701   -0.00659698
     atom   15 type  1   force =    -0.00346761   -0.00027886    0.00578772
     atom   16 type  1   force =    -0.00346760    0.00578777   -0.00027889
     atom   17 type  1   force =     0.01336984   -0.00010363   -0.01320235
     atom   18 type  1   force =     0.00889496   -0.00879484   -0.02545395
     atom   19 type  1   force =     0.00844953   -0.02573346    0.00817713
     atom   20 type  1   force =     0.01336946   -0.01320203   -0.00010358
     atom   21 type  1   force =     0.00889497   -0.02545393   -0.00879481
     atom   22 type  1   force =     0.00049445    0.01231239    0.01231246
     atom   23 type  1   force =     0.00031974   -0.00474604   -0.00474608
     atom   24 type  1   force =    -0.00881848    0.02522014    0.00847897
     atom   25 type  1   force =    -0.00881848    0.00847895    0.02522010
     atom   26 type  1   force =     0.00138604    0.03079325    0.00045038
     atom   27 type  1   force =     0.00002838   -0.00455205    0.00424687
     atom   28 type  1   force =    -0.00859345    0.02540123   -0.00814931
     atom   29 type  1   force =     0.00468341   -0.00470952    0.00005361
     atom   30 type  1   force =    -0.00021232    0.01232583   -0.01240799
     atom   31 type  1   force =    -0.00871139    0.00821966   -0.02581292
     atom   32 type  1   force =     0.00138606    0.00045044    0.03079332
     atom   33 type  1   force =     0.00002837    0.00424692   -0.00455208
     atom   34 type  1   force =     0.00468341    0.00005365   -0.00470955
     atom   35 type  1   force =    -0.00859335   -0.00814925    0.02540099
     atom   36 type  1   force =     0.00043299    0.00035661    0.00035660
     atom   37 type  1   force =     0.00024623    0.00462677    0.00462672
     atom   38 type  1   force =     0.00498248   -0.00001422    0.00505553
     atom   39 type  1   force =     0.00498249    0.00505557   -0.00001423
     atom   40 type  1   force =     0.00027166    0.00005801   -0.03020475
     atom   41 type  1   force =    -0.00851836   -0.00859088   -0.02530663
     atom   42 type  1   force =    -0.00021230   -0.01240727    0.01232513
     atom   43 type  1   force =    -0.00871130   -0.02581269    0.00821959
     atom   44 type  1   force =     0.00027164   -0.03020484    0.00005795
     atom   45 type  1   force =    -0.00851836   -0.02530660   -0.00859086
     atom   46 type  1   force =     0.00028095   -0.01220811   -0.01220804
     atom   47 type  1   force =    -0.02521308    0.00860112    0.00860116
     atom   48 type  1   force =    -0.01247095    0.01270570   -0.00007297
     atom   49 type  1   force =    -0.02569954    0.00843354   -0.00845263
     atom   50 type  1   force =    -0.01247054   -0.00007302    0.01270535
     atom   51 type  1   force =    -0.02569932   -0.00845256    0.00843346
     atom   52 type  1   force =    -0.03092136    0.00011317    0.00011311
     atom   53 type  1   force =    -0.02569670   -0.00839936   -0.00839934
     atom   54 type  1   force =    -0.01197171   -0.00015292   -0.01177392
     atom   55 type  1   force =    -0.01197129   -0.01177357   -0.00015289
     atom   56 type  2   force =     0.00000000    0.00000000    0.00000000
     The Hubbard contrib.    to forces
     atom    1 type  1   force =     0.00000000    0.00000000    0.00000000
     atom    2 type  1   force =     0.00000000    0.00000000    0.00000000
     atom    3 type  1   force =     0.00000000    0.00000000    0.00000000
     atom    4 type  1   force =     0.00000000    0.00000000    0.00000000
     atom    5 type  1   force =     0.00000000    0.00000000    0.00000000
     atom    6 type  1   force =     0.00000000    0.00000000    0.00000000
     atom    7 type  1   force =     0.00000000    0.00000000    0.00000000
     atom    8 type  1   force =     0.00000000    0.00000000    0.00000000
     atom    9 type  1   force =     0.00000000    0.00000000    0.00000000
     atom   10 type  1   force =     0.00000000    0.00000000    0.00000000
     atom   11 type  1   force =     0.00000000    0.00000000    0.00000000
     atom   12 type  1   force =     0.00000000    0.00000000    0.00000000
     atom   13 type  1   force =     0.00000000    0.00000000    0.00000000
     atom   14 type  1   force =     0.00000000    0.00000000    0.00000000
     atom   15 type  1   force =     0.00000000    0.00000000    0.00000000
     atom   16 type  1   force =     0.00000000    0.00000000    0.00000000
     atom   17 type  1   force =     0.00000000    0.00000000    0.00000000
     atom   18 type  1   force =     0.00000000    0.00000000    0.00000000
     atom   19 type  1   force =     0.00000000    0.00000000    0.00000000
     atom   20 type  1   force =     0.00000000    0.00000000    0.00000000
     atom   21 type  1   force =     0.00000000    0.00000000    0.00000000
     atom   22 type  1   force =     0.00000000    0.00000000    0.00000000
     atom   23 type  1   force =     0.00000000    0.00000000    0.00000000
     atom   24 type  1   force =     0.00000000    0.00000000    0.00000000
     atom   25 type  1   force =     0.00000000    0.00000000    0.00000000
     atom   26 type  1   force =     0.00000000    0.00000000    0.00000000
     atom   27 type  1   force =     0.00000000    0.00000000    0.00000000
     atom   28 type  1   force =     0.00000000    0.00000000    0.00000000
     atom   29 type  1   force =     0.00000000    0.00000000    0.00000000
     atom   30 type  1   force =     0.00000000    0.00000000    0.00000000
     atom   31 type  1   force =     0.00000000    0.00000000    0.00000000
     atom   32 type  1   force =     0.00000000    0.00000000    0.00000000
     atom   33 type  1   force =     0.00000000    0.00000000    0.00000000
     atom   34 type  1   force =     0.00000000    0.00000000    0.00000000
     atom   35 type  1   force =     0.00000000    0.00000000    0.00000000
     atom   36 type  1   force =     0.00000000    0.00000000    0.00000000
     atom   37 type  1   force =     0.00000000    0.00000000    0.00000000
     atom   38 type  1   force =     0.00000000    0.00000000    0.00000000
     atom   39 type  1   force =     0.00000000    0.00000000    0.00000000
     atom   40 type  1   force =     0.00000000    0.00000000    0.00000000
     atom   41 type  1   force =     0.00000000    0.00000000    0.00000000
     atom   42 type  1   force =     0.00000000    0.00000000    0.00000000
     atom   43 type  1   force =     0.00000000    0.00000000    0.00000000
     atom   44 type  1   force =     0.00000000    0.00000000    0.00000000
     atom   45 type  1   force =     0.00000000    0.00000000    0.00000000
     atom   46 type  1   force =     0.00000000    0.00000000    0.00000000
     atom   47 type  1   force =     0.00000000    0.00000000    0.00000000
     atom   48 type  1   force =     0.00000000    0.00000000    0.00000000
     atom   49 type  1   force =     0.00000000    0.00000000    0.00000000
     atom   50 type  1   force =     0.00000000    0.00000000    0.00000000
     atom   51 type  1   force =     0.00000000    0.00000000    0.00000000
     atom   52 type  1   force =     0.00000000    0.00000000    0.00000000
     atom   53 type  1   force =     0.00000000    0.00000000    0.00000000
     atom   54 type  1   force =     0.00000000    0.00000000    0.00000000
     atom   55 type  1   force =     0.00000000    0.00000000    0.00000000
     atom   56 type  2   force =     0.00000000    0.00000000    0.00000000
     The SCF correction term to forces
     atom    1 type  1   force =    -0.00000987    0.00001882   -0.00005157
     atom    2 type  1   force =    -0.00000588    0.00001967   -0.00004335
     atom    3 type  1   force =     0.00000316    0.00003685    0.00000085
     atom    4 type  1   force =    -0.00002876    0.00000403   -0.00004231
     atom    5 type  1   force =    -0.00005483    0.00000375   -0.00003680
     atom    6 type  1   force =    -0.00004211   -0.00002366   -0.00003806
     atom    7 type  1   force =    -0.00003340    0.00001262   -0.00009155
     atom    8 type  1   force =    -0.00004300   -0.00001026    0.00001617
     atom    9 type  1   force =     0.00001500    0.00001344    0.00000867
     atom   10 type  1   force =     0.00000819   -0.00000250   -0.00002970
     atom   11 type  1   force =    -0.00001219    0.00002007   -0.00006957
     atom   12 type  1   force =     0.00000624   -0.00001279    0.00002046
     atom   13 type  1   force =    -0.00003044   -0.00000567   -0.00008539
     atom   14 type  1   force =    -0.00004897    0.00000857   -0.00006319
     atom   15 type  1   force =    -0.00004848    0.00001643   -0.00007421
     atom   16 type  1   force =    -0.00002672    0.00001026   -0.00009517
     atom   17 type  1   force =    -0.00005053    0.00001693   -0.00000095
     atom   18 type  1   force =    -0.00004741    0.00002902   -0.00000395
     atom   19 type  1   force =     0.00000688   -0.00002620   -0.00003485
     atom   20 type  1   force =    -0.00000542   -0.00000362   -0.00003840
     atom   21 type  1   force =    -0.00003725    0.00001662   -0.00005341
     atom   22 type  1   force =     0.00001220    0.00003346   -0.00000689
     atom   23 type  1   force =     0.00002084    0.00003666   -0.00006715
     atom   24 type  1   force =     0.00003002    0.00003955   -0.00003461
     atom   25 type  1   force =     0.00002223    0.00004908    0.00002012
     atom   26 type  1   force =     0.00000847   -0.00000426   -0.00005959
     atom   27 type  1   force =     0.00001374   -0.00000190   -0.00007265
     atom   28 type  1   force =     0.00005606   -0.00001973   -0.00005247
     atom   29 type  1   force =     0.00006902    0.00002420   -0.00010226
     atom   30 type  1   force =     0.00000130   -0.00004138    0.00000872
     atom   31 type  1   force =     0.00005501   -0.00002228    0.00000337
     atom   32 type  1   force =     0.00001124    0.00002547    0.00002124
     atom   33 type  1   force =     0.00001720   -0.00000714   -0.00006549
     atom   34 type  1   force =     0.00005099    0.00001311   -0.00006172
     atom   35 type  1   force =     0.00001094   -0.00002686    0.00002540
     atom   36 type  1   force =     0.00002598    0.00001750   -0.00012337
     atom   37 type  1   force =     0.00000545    0.00002098   -0.00008535
     atom   38 type  1   force =     0.00007769    0.00000023   -0.00009402
     atom   39 type  1   force =     0.00005911   -0.00000683   -0.00011520
     atom   40 type  1   force =    -0.00000268    0.00001001    0.00002411
     atom   41 type  1   force =     0.00004975    0.00002452    0.00000514
     atom   42 type  1   force =     0.00000303   -0.00003940    0.00000703
     atom   43 type  1   force =     0.00000860   -0.00004053   -0.00004690
     atom   44 type  1   force =    -0.00000056   -0.00000089   -0.00007487
     atom   45 type  1   force =     0.00004117    0.00002593   -0.00006053
     atom   46 type  1   force =    -0.00000826    0.00004342    0.00000066
     atom   47 type  1   force =     0.00000171    0.00005110   -0.00002500
     atom   48 type  1   force =     0.00002731    0.00003167   -0.00005151
     atom   49 type  1   force =     0.00005704    0.00000120   -0.00007767
     atom   50 type  1   force =    -0.00001740    0.00000628    0.00003566
     atom   51 type  1   force =    -0.00000662   -0.00004243   -0.00003373
     atom   52 type  1   force =     0.00001814    0.00000090   -0.00008740
     atom   53 type  1   force =     0.00005609    0.00000033   -0.00007631
     atom   54 type  1   force =     0.00006344   -0.00000453   -0.00002082
     atom   55 type  1   force =     0.00001811   -0.00002435   -0.00006247
     atom   56 type  2   force =     0.00000100    0.00000142   -0.00000216

     Total force =     0.003090     Total SCF correction =     0.000524
     SCF correction compared to forces is large: reduce conv_thr to get better values
     Energy error            =      1.9E-05 Ry
     Gradient error          =      8.2E-04 Ry/Bohr

     bfgs converged in  29 scf cycles and  28 bfgs steps
     (criteria: energy <  1.0E-04 Ry, force <  1.0E-03 Ry/Bohr)

     End of BFGS Geometry Optimization

     Final energy             =  -11591.5449040210 Ry

     File ./out/calc.bfgs deleted, as requested
Begin final coordinates

ATOMIC_POSITIONS (angstrom)
Pt              -3.9218572049       -1.9471477076       -1.9471477076
Pt              -1.9077619794       -3.9536047229       -1.9503666339
Pt              -1.9077619794       -1.9503666339       -3.9536047229
Pt              -3.7416519530       -3.8668271270        0.0169064386
Pt              -3.9213401550       -1.9297248703        1.9127418629
Pt              -1.8817670598       -3.9527984652        1.9317998516
Pt              -1.9444264787       -1.9402582563       -0.0088457763
Pt              -1.9050379492       -1.9153053815        3.9437854239
Pt              -3.7416519530        0.0169064386       -3.8668271270
Pt              -3.9213401550        1.9127418629       -1.9297248703
Pt              -1.9444264787       -0.0088457763       -1.9402582563
Pt              -1.8817670598        1.9317998516       -3.9527984652
Pt              -4.2607269254        0.0135856919        0.0135856919
Pt              -3.9588476529        1.8904979612        1.8904979612
Pt              -1.9472797837       -0.0120716246        1.9161187830
Pt              -1.9472797837        1.9161187830       -0.0120716246
Pt              -3.7954015646       -0.0098446486        3.8183611059
Pt              -1.9191355173        1.9045395653        3.9243987040
Pt              -1.9050379492        3.9437854239       -1.9153053815
Pt              -3.7954015646        3.8183611059       -0.0098446486
Pt              -1.9191355173        3.9243987040        1.9045395653
Pt               0.0245367464       -3.8248542338       -3.8248542338
Pt              -0.0147055302       -1.9381781441       -1.9381781441
Pt               1.9059147879       -3.9377818048       -1.9069824623
Pt               1.9059147879       -1.9069824623       -3.9377818048
Pt              -0.0070728323       -4.1411688970       -0.0080442498
Pt              -0.0134025945       -1.9266886632        1.9243945188
Pt               1.8944145699       -3.9317572157        1.9068158467
Pt               1.9153438661       -1.9272380836       -0.0040398809
Pt               0.0129144806       -3.7965670966        3.8352037220
Pt               1.9121598713       -1.9027833984        3.9284247092
Pt              -0.0070728323       -0.0080442498       -4.1411688970
Pt              -0.0134025945        1.9243945188       -1.9266886632
Pt               1.9153438661       -0.0040398809       -1.9272380836
Pt               1.8944145699        1.9068158467       -3.9317572157
Pt              -0.0238301858       -0.0114181075       -0.0114181075
Pt              -0.0201419451        1.9139043310        1.9139043310
Pt               1.9151603944       -0.0035828016        1.9205592638
Pt               1.9151603944        1.9205592638       -0.0035828016
Pt              -0.0047368487        0.0014154956        4.1416180140
Pt               1.8977015673        1.9058590067        3.9267225400
Pt               0.0129144806        3.8352037220       -3.7965670966
Pt               1.9121598713        3.9284247092       -1.9027833984
Pt              -0.0047368487        4.1416180140        0.0014154956
Pt               1.8977015673        3.9267225400        1.9058590067
Pt              -0.0095888736        3.8003668653        3.8003668653
Pt               3.9302096456       -1.9099145270       -1.9099145270
Pt               3.8023419570       -3.8044265066        0.0015159059
Pt               3.9283204188       -1.9071633276        1.9097409168
Pt               3.8023419570        0.0015159059       -3.8044265066
Pt               3.9283204188        1.9097409168       -1.9071633276
Pt               4.1359835554       -0.0022361260       -0.0022361260
Pt               3.9247966619        1.9041541628        1.9041541628
Pt               3.8065213127        0.0075553822        3.8098224404
Pt               3.8065213127        3.8098224404        0.0075553822
H               -5.1593450410       -1.0395119586       -1.0395119586
End final coordinates

     Writing all to output data dir ./out/calc.save/ :
     XML data file, charge density, pseudopotentials, collected wavefunctions

     General routines

     Parallel routines

   This run was terminated on:  22:29:47  19Jan2025

   JOB DONE.