     Program PWSCF v.7.3.1 starts on  6May2025 at 10:49:34

     Reading input from espresso.pwi
Warning: card   &CELL ignored
Warning: card      CELL_DOFREE = 'IBRAV' ignored
Warning: card / ignored

     Current dimensions of program PWSCF are:
     Max number of different atomic species (ntypx) = 10
     Max number of k-points (npk) =  40000
     Max angular momentum in pseudopotentials (lmaxx) =  4
     Message from routine iosys:
     restart disabled: needed files not found

     IMPORTANT: XC functional enforced from input :
     Exchange-correlation= RVV10
                           (   1   4  13   4  26   0   0)
     Any further DFT definition will be discarded
     Please, verify this is what you really want

     Atomic positions and unit cell read from directory:
     ./out/calc.save/
     Message from routine qexsd_readschema :
     xml data file ./out/calc.save/data-file-schema.xml not found
     Nothing found: using input atomic positions and unit cell

     gamma-point specific algorithms are used
     Message from routine setup:
     using ibrav=0 with symmetry is DISCOURAGED, use correct ibrav instead

     R & G space division:  proc/nbgrp/npool/nimage =      36
     Subspace diagonalization in iterative solution of the eigenvalue problem:
     one sub-group per band group will be used

     Using Slab Decomposition

     Title:
     calc

     bravais-lattice index     =            0
     lattice parameter (alat)  =      47.2432  a.u.
     unit-cell volume          =  105442.7265 (a.u.)^3
     number of atoms/cell      =          116
     number of atomic types    =            1
     number of electrons       =      1856.00
     number of Kohn-Sham states=         1114
     kinetic-energy cutoff     =      60.0000  Ry
     charge density cutoff     =     480.0000  Ry
     scf convergence threshold =      1.0E-06
     mixing beta               =       0.1000
     number of iterations used =            8  local-TF  mixing
     energy convergence thresh.=      1.0E-04
     force convergence thresh. =      1.0E-03
     Exchange-correlation= RVV10
                           (   1   4  13   4  26   0   0)
     nstep                     =        10000

     celldm(1)=  47.243153  celldm(2)=   0.000000  celldm(3)=   0.000000
     celldm(4)=   0.000000  celldm(5)=   0.000000  celldm(6)=   0.000000

     crystal axes: (cart. coord. in units of alat)
               a(1) = (   1.000000   0.000000   0.000000 )
               a(2) = (   0.000000   1.000000   0.000000 )
               a(3) = (   0.000000   0.000000   1.000000 )

     reciprocal axes: (cart. coord. in units 2 pi/alat)
               b(1) = (  1.000000  0.000000  0.000000 )
               b(2) = (  0.000000  1.000000  0.000000 )
               b(3) = (  0.000000  0.000000  1.000000 )

     PseudoPot. # 1 for Pt read from file:
     /home/james/work/espresso/SSSP_1.3.0_PBE_efficiency/pt_pbe_v1.4.uspp.F.UPF
     MD5 check sum: f09d6de1a584b5a045c4fc126da2d0c4
     Pseudo is Ultrasoft + core correction, Zval = 16.0
     Generated by new atomic code, or converted to UPF format
     Using radial grid of  985 points,  6 beta functions with:
                l(1) =   0
                l(2) =   0
                l(3) =   1
                l(4) =   1
                l(5) =   2
                l(6) =   2
     Q(r) pseudized with  8 coefficients,  rinner =    1.300   1.300   1.300
                                                       1.300   1.300

     atomic species   valence    mass     pseudopotential
     Pt               16.00   195.08400     Pt( 1.00)

     Starting magnetic structure
     atomic species   magnetization
     Pt              0.010

     48 Sym. Ops., with inversion, found

                                    s                        frac. trans.

      isym =  1     identity

 cryst.   s( 1) = (     1          0          0      )
                  (     0          1          0      )
                  (     0          0          1      )

 cart.    s( 1) = (  1.0000000  0.0000000  0.0000000 )
                  (  0.0000000  1.0000000  0.0000000 )
                  (  0.0000000  0.0000000  1.0000000 )

      isym =  2     180 deg rotation - cart. axis [0,0,1]

[...]

 cryst.   s( 9) = (     0          0          1      )
                  (     0         -1          0      )
                  (     1          0          0      )

 cart.    s( 9) = (  0.0000000  0.0000000  1.0000000 )
                  (  0.0000000 -1.0000000  0.0000000 )
                  (  1.0000000  0.0000000  0.0000000 )

[...]

 cryst.   s(10) = (     0          0         -1      )
                  (     0         -1          0      )
                  (    -1          0          0      )

 cart.    s(10) = (  0.0000000  0.0000000 -1.0000000 )
                  (  0.0000000 -1.0000000  0.0000000 )
                  ( -1.0000000  0.0000000  0.0000000 )

[...]

      isym = 24     120 deg rotation - cart. axis [-1,-1,1]

[...]

      isym = 25     inversion

[...]

      isym = 26     inv. 180 deg rotation - cart. axis [0,0,1]

[...]

      isym = 48     inv. 120 deg rotation - cart. axis [-1,-1,1]

 cryst.   s(48) = (     0         -1          0      )
                  (     0          0          1      )
                  (     1          0          0      )

 cart.    s(48) = (  0.0000000  0.0000000  1.0000000 )
                  ( -1.0000000  0.0000000  0.0000000 )
                  (  0.0000000  1.0000000  0.0000000 )

   Cartesian axes

     site n.     atom                  positions (alat units)
         1        Pt     tau(   1) = (  -0.2317675  -0.1538077   0.0000000  )
         2        Pt     tau(   2) = (  -0.1538077  -0.2317675   0.0000000  )
         3        Pt     tau(   3) = (  -0.1617551  -0.1617551  -0.0847262  )
         4        Pt     tau(   4) = (  -0.1617551  -0.1617551   0.0847262  )
         5        Pt     tau(   5) = (  -0.2317675   0.0000000  -0.1538077  )
         6        Pt     tau(   6) = (  -0.1617551  -0.0847262  -0.1617551  )
         7        Pt     tau(   7) = (  -0.1538077   0.0000000  -0.2317675  )
         8        Pt     tau(   8) = (  -0.2338884  -0.0780548  -0.0780548  )
         9        Pt     tau(   9) = (  -0.2370085   0.0000000   0.0000000  )
        10        Pt     tau(  10) = (  -0.1554444  -0.0788785   0.0000000  )
        11        Pt     tau(  11) = (  -0.1554444   0.0000000  -0.0788785  )
        12        Pt     tau(  12) = (  -0.2338884  -0.0780548   0.0780548  )
        13        Pt     tau(  13) = (  -0.2317675   0.0000000   0.1538077  )
        14        Pt     tau(  14) = (  -0.1617551  -0.0847262   0.1617551  )
        15        Pt     tau(  15) = (  -0.1554444   0.0000000   0.0788785  )
        16        Pt     tau(  16) = (  -0.1538077   0.0000000   0.2317675  )
        17        Pt     tau(  17) = (  -0.1617551   0.0847262  -0.1617551  )
        18        Pt     tau(  18) = (  -0.2338884   0.0780548  -0.0780548  )
        19        Pt     tau(  19) = (  -0.2317675   0.1538077   0.0000000  )
        20        Pt     tau(  20) = (  -0.1554444   0.0788785   0.0000000  )
        21        Pt     tau(  21) = (  -0.1617551   0.1617551  -0.0847262  )
        22        Pt     tau(  22) = (  -0.2338884   0.0780548   0.0780548  )
        23        Pt     tau(  23) = (  -0.1617551   0.0847262   0.1617551  )
        24        Pt     tau(  24) = (  -0.1617551   0.1617551   0.0847262  )
        25        Pt     tau(  25) = (  -0.1538077   0.2317675   0.0000000  )
        26        Pt     tau(  26) = (  -0.0847262  -0.1617551  -0.1617551  )
        27        Pt     tau(  27) = (   0.0000000  -0.2317675  -0.1538077  )
        28        Pt     tau(  28) = (   0.0000000  -0.1538077  -0.2317675  )
        29        Pt     tau(  29) = (  -0.0780548  -0.2338884  -0.0780548  )
        30        Pt     tau(  30) = (  -0.0788785  -0.1554444   0.0000000  )
        31        Pt     tau(  31) = (   0.0000000  -0.2370085   0.0000000  )
        32        Pt     tau(  32) = (   0.0000000  -0.1554444  -0.0788785  )
        33        Pt     tau(  33) = (  -0.0780548  -0.2338884   0.0780548  )
        34        Pt     tau(  34) = (  -0.0847262  -0.1617551   0.1617551  )
        35        Pt     tau(  35) = (   0.0000000  -0.2317675   0.1538077  )
        36        Pt     tau(  36) = (   0.0000000  -0.1554444   0.0788785  )
        37        Pt     tau(  37) = (   0.0000000  -0.1538077   0.2317675  )
        38        Pt     tau(  38) = (  -0.0780548  -0.0780548  -0.2338884  )
        39        Pt     tau(  39) = (  -0.0788785   0.0000000  -0.1554444  )
        40        Pt     tau(  40) = (   0.0000000  -0.0788785  -0.1554444  )
        41        Pt     tau(  41) = (   0.0000000   0.0000000  -0.2370085  )
        42        Pt     tau(  42) = (  -0.0808740  -0.0808740  -0.0808740  )
        43        Pt     tau(  43) = (  -0.0786873   0.0000000   0.0000000  )
        44        Pt     tau(  44) = (   0.0000000  -0.0786873   0.0000000  )
        45        Pt     tau(  45) = (   0.0000000   0.0000000  -0.0786873  )
        46        Pt     tau(  46) = (  -0.0808740  -0.0808740   0.0808740  )
        47        Pt     tau(  47) = (  -0.0788785   0.0000000   0.1554444  )
        48        Pt     tau(  48) = (   0.0000000  -0.0788785   0.1554444  )
        49        Pt     tau(  49) = (   0.0000000   0.0000000   0.0786873  )
        50        Pt     tau(  50) = (  -0.0780548  -0.0780548   0.2338884  )
        51        Pt     tau(  51) = (   0.0000000   0.0000000   0.2370085  )
        52        Pt     tau(  52) = (  -0.0780548   0.0780548  -0.2338884  )
        53        Pt     tau(  53) = (  -0.0847262   0.1617551  -0.1617551  )
        54        Pt     tau(  54) = (   0.0000000   0.0788785  -0.1554444  )
        55        Pt     tau(  55) = (   0.0000000   0.1538077  -0.2317675  )
        56        Pt     tau(  56) = (  -0.0808740   0.0808740  -0.0808740  )
        57        Pt     tau(  57) = (  -0.0788785   0.1554444   0.0000000  )
        58        Pt     tau(  58) = (   0.0000000   0.0786873   0.0000000  )
        59        Pt     tau(  59) = (   0.0000000   0.1554444  -0.0788785  )
        60        Pt     tau(  60) = (  -0.0808740   0.0808740   0.0808740  )
[...]
       102        Pt     tau( 102) = (   0.1617551   0.0847262   0.1617551  )
       103        Pt     tau( 103) = (   0.1617551   0.1617551   0.0847262  )
       104        Pt     tau( 104) = (   0.0780548   0.0780548   0.2338884  )
       105        Pt     tau( 105) = (   0.0780548   0.2338884  -0.0780548  )
       106        Pt     tau( 106) = (   0.1538077   0.2317675   0.0000000  )
       107        Pt     tau( 107) = (   0.0780548   0.2338884   0.0780548  )
       108        Pt     tau( 108) = (   0.2317675  -0.1538077   0.0000000  )
       109        Pt     tau( 109) = (   0.2317675   0.0000000  -0.1538077  )
       110        Pt     tau( 110) = (   0.2338884  -0.0780548  -0.0780548  )
       111        Pt     tau( 111) = (   0.2370085   0.0000000   0.0000000  )
       112        Pt     tau( 112) = (   0.2338884  -0.0780548   0.0780548  )
       113        Pt     tau( 113) = (   0.2317675   0.0000000   0.1538077  )
[...]
     atom   10 type  1   force =     0.00000000    0.00000000    0.00000000
     atom   11 type  1   force =     0.00000000    0.00000000    0.00000000
     atom   12 type  1   force =     0.00000000    0.00000000    0.00000000
     atom   13 type  1   force =     0.00000000    0.00000000    0.00000000
     atom   14 type  1   force =     0.00000000    0.00000000    0.00000000
     atom   15 type  1   force =     0.00000000    0.00000000    0.00000000
     atom   16 type  1   force =     0.00000000    0.00000000    0.00000000
     atom   17 type  1   force =     0.00000000    0.00000000    0.00000000
     atom   18 type  1   force =     0.00000000    0.00000000    0.00000000
     atom   19 type  1   force =     0.00000000    0.00000000    0.00000000
     atom   20 type  1   force =     0.00000000    0.00000000    0.00000000
     atom   21 type  1   force =     0.00000000    0.00000000    0.00000000
     atom   22 type  1   force =     0.00000000    0.00000000    0.00000000
     atom   23 type  1   force =     0.00000000    0.00000000    0.00000000
     atom   24 type  1   force =     0.00000000    0.00000000    0.00000000
     atom   25 type  1   force =     0.00000000    0.00000000    0.00000000
     atom   26 type  1   force =     0.00000000    0.00000000    0.00000000
     atom   27 type  1   force =     0.00000000    0.00000000    0.00000000
     atom   28 type  1   force =     0.00000000    0.00000000    0.00000000
     atom   29 type  1   force =     0.00000000    0.00000000    0.00000000
     atom   30 type  1   force =     0.00000000    0.00000000    0.00000000
     atom   31 type  1   force =     0.00000000    0.00000000    0.00000000
     atom   32 type  1   force =     0.00000000    0.00000000    0.00000000
     atom   33 type  1   force =     0.00000000    0.00000000    0.00000000
     atom   34 type  1   force =     0.00000000    0.00000000    0.00000000
     atom   35 type  1   force =     0.00000000    0.00000000    0.00000000
     atom   36 type  1   force =     0.00000000    0.00000000    0.00000000
     atom   37 type  1   force =     0.00000000    0.00000000    0.00000000
     atom   38 type  1   force =     0.00000000    0.00000000    0.00000000
     atom   39 type  1   force =     0.00000000    0.00000000    0.00000000
     atom   40 type  1   force =     0.00000000    0.00000000    0.00000000
     atom   41 type  1   force =     0.00000000    0.00000000    0.00000000
     atom   42 type  1   force =     0.00000000    0.00000000    0.00000000
     atom   43 type  1   force =     0.00000000    0.00000000    0.00000000
     atom   44 type  1   force =     0.00000000    0.00000000    0.00000000
     atom   45 type  1   force =     0.00000000    0.00000000    0.00000000
     atom   46 type  1   force =     0.00000000    0.00000000    0.00000000
     atom   47 type  1   force =     0.00000000    0.00000000    0.00000000
     atom   48 type  1   force =     0.00000000    0.00000000    0.00000000
     atom   49 type  1   force =     0.00000000    0.00000000    0.00000000
     atom   50 type  1   force =     0.00000000    0.00000000    0.00000000
     atom   51 type  1   force =     0.00000000    0.00000000    0.00000000
     atom   52 type  1   force =     0.00000000    0.00000000    0.00000000
     atom   53 type  1   force =     0.00000000    0.00000000    0.00000000
     atom   54 type  1   force =     0.00000000    0.00000000    0.00000000
     atom   55 type  1   force =     0.00000000    0.00000000    0.00000000
     atom   56 type  1   force =     0.00000000    0.00000000    0.00000000
     atom   57 type  1   force =     0.00000000    0.00000000    0.00000000
     atom   58 type  1   force =     0.00000000    0.00000000    0.00000000
     atom   59 type  1   force =     0.00000000    0.00000000    0.00000000
     atom   60 type  1   force =     0.00000000    0.00000000    0.00000000
[...]
     atom  102 type  1   force =     0.00000000    0.00000000    0.00000000
     atom  103 type  1   force =     0.00000000    0.00000000    0.00000000
     atom  104 type  1   force =     0.00000000    0.00000000    0.00000000
     atom  105 type  1   force =     0.00000000    0.00000000    0.00000000
     atom  106 type  1   force =     0.00000000    0.00000000    0.00000000
     atom  107 type  1   force =     0.00000000    0.00000000    0.00000000
     atom  108 type  1   force =     0.00000000    0.00000000    0.00000000
     atom  109 type  1   force =     0.00000000    0.00000000    0.00000000
     atom  110 type  1   force =     0.00000000    0.00000000    0.00000000
     atom  111 type  1   force =     0.00000000    0.00000000    0.00000000
     atom  112 type  1   force =     0.00000000    0.00000000    0.00000000
     atom  113 type  1   force =     0.00000000    0.00000000    0.00000000
     atom  114 type  1   force =     0.00000000    0.00000000    0.00000000
     atom  115 type  1   force =     0.00000000    0.00000000    0.00000000
     atom  116 type  1   force =     0.00000000    0.00000000    0.00000000
     The SCF correction term to forces
     atom    1 type  1   force =     0.00000893   -0.00000320    0.00000025
     atom    2 type  1   force =    -0.00000296    0.00000919    0.00000025
     atom    3 type  1   force =     0.00001263    0.00001236   -0.00000671
     atom    4 type  1   force =     0.00001336    0.00001309    0.00000754
     atom    5 type  1   force =     0.00000695   -0.00000067   -0.00000350
     atom    6 type  1   force =     0.00001134   -0.00000817    0.00001317
     atom    7 type  1   force =    -0.00000525   -0.00000063    0.00000744
     atom    8 type  1   force =     0.00001922    0.00000246    0.00000319
     atom    9 type  1   force =     0.00002134   -0.00000075    0.00000040
     atom   10 type  1   force =     0.00003763    0.00002633    0.00000089
     atom   11 type  1   force =     0.00003596   -0.00000174    0.00002827
     atom   12 type  1   force =     0.00002008    0.00000252   -0.00000278
     atom   13 type  1   force =     0.00000854   -0.00000053    0.00000320
     atom   14 type  1   force =     0.00001298   -0.00000796   -0.00001319
     atom   15 type  1   force =     0.00003718   -0.00000157   -0.00002690
     atom   16 type  1   force =    -0.00000353   -0.00000061   -0.00000881
     atom   17 type  1   force =     0.00001013    0.00000633    0.00001176
     atom   18 type  1   force =     0.00001749   -0.00000357    0.00000318
     atom   19 type  1   force =     0.00000638    0.00000359    0.00000037
     atom   20 type  1   force =     0.00003581   -0.00002884    0.00000104
     atom   21 type  1   force =     0.00001003   -0.00001207   -0.00000676
     atom   22 type  1   force =     0.00001856   -0.00000353   -0.00000263
     atom   23 type  1   force =     0.00001159    0.00000630   -0.00001206
     atom   24 type  1   force =     0.00001081   -0.00001279    0.00000777
     atom   25 type  1   force =    -0.00000572   -0.00000680    0.00000039
     atom   26 type  1   force =    -0.00000797    0.00001146    0.00001340
     atom   27 type  1   force =    -0.00000054    0.00000725   -0.00000327
     atom   28 type  1   force =    -0.00000055   -0.00000517    0.00000742
     atom   29 type  1   force =     0.00000276    0.00001967    0.00000339
     atom   30 type  1   force =     0.00002721    0.00003755    0.00000085
     atom   31 type  1   force =    -0.00000065    0.00002197    0.00000036
     atom   32 type  1   force =    -0.00000143    0.00003629    0.00002891
     atom   33 type  1   force =     0.00000276    0.00002048   -0.00000297
     atom   34 type  1   force =    -0.00000787    0.00001299   -0.00001359
     atom   35 type  1   force =    -0.00000053    0.00000891    0.00000281
     atom   36 type  1   force =    -0.00000132    0.00003738   -0.00002756
     atom   37 type  1   force =    -0.00000044   -0.00000335   -0.00000883
     atom   38 type  1   force =     0.00000166    0.00000151    0.00001871
     atom   39 type  1   force =     0.00002531   -0.00000176    0.00003769
     atom   40 type  1   force =    -0.00000138    0.00002501    0.00003803
     atom   41 type  1   force =    -0.00000057   -0.00000081    0.00001968
     atom   42 type  1   force =     0.00003516    0.00003429    0.00003795
     atom   43 type  1   force =     0.00004948   -0.00000255    0.00000156
     atom   44 type  1   force =    -0.00000206    0.00004848    0.00000145
     atom   45 type  1   force =    -0.00000221   -0.00000277    0.00005236
     atom   46 type  1   force =     0.00003565    0.00003496   -0.00003609
     atom   47 type  1   force =     0.00002639   -0.00000167   -0.00003756
     atom   48 type  1   force =    -0.00000142    0.00002617   -0.00003780
     atom   49 type  1   force =    -0.00000225   -0.00000264   -0.00004999
     atom   50 type  1   force =     0.00000246    0.00000238   -0.00002019
     atom   51 type  1   force =    -0.00000067   -0.00000078   -0.00002106
     atom   52 type  1   force =     0.00000165   -0.00000247    0.00001695
     atom   53 type  1   force =    -0.00000798   -0.00001103    0.00001067
     atom   54 type  1   force =    -0.00000147   -0.00002753    0.00003590
     atom   55 type  1   force =    -0.00000051    0.00000578    0.00000474
     atom   56 type  1   force =     0.00003432   -0.00003774    0.00003733
     atom   57 type  1   force =     0.00002534   -0.00003795    0.00000104
     atom   58 type  1   force =    -0.00000238   -0.00005266    0.00000158
     atom   59 type  1   force =    -0.00000149   -0.00003634    0.00002704
     atom   60 type  1   force =     0.00003474   -0.00003824   -0.00003535
[...]
     atom  102 type  1   force =    -0.00001121    0.00000648   -0.00000988
     atom  103 type  1   force =    -0.00001027   -0.00001035    0.00000784
     atom  104 type  1   force =    -0.00000317   -0.00000322   -0.00001710
     atom  105 type  1   force =    -0.00000207   -0.00001541    0.00000210
     atom  106 type  1   force =     0.00000640   -0.00000441    0.00000039
     atom  107 type  1   force =    -0.00000204   -0.00001650   -0.00000153
     atom  108 type  1   force =    -0.00000723   -0.00000534    0.00000033
     atom  109 type  1   force =    -0.00000507   -0.00000060   -0.00000596
     atom  110 type  1   force =    -0.00001715    0.00000152    0.00000207
     atom  111 type  1   force =    -0.00001930   -0.00000079    0.00000047
     atom  112 type  1   force =    -0.00001810    0.00000155   -0.00000157
     atom  113 type  1   force =    -0.00000661   -0.00000056    0.00000554
     atom  114 type  1   force =    -0.00001524   -0.00000227    0.00000217
     atom  115 type  1   force =    -0.00000427    0.00000626    0.00000040
     atom  116 type  1   force =    -0.00001630   -0.00000224   -0.00000158

     Total force =     0.005983     Total SCF correction =     0.000342
     Energy error            =      7.7E-05 Ry
     Gradient error          =      6.4E-04 Ry/Bohr

     bfgs converged in   6 scf cycles and   5 bfgs steps
     (criteria: energy <  1.0E-04 Ry, force <  1.0E-03 Ry/Bohr)

     End of BFGS Geometry Optimization

     Final energy             =  -24447.8088297593 Ry

     File ./out/calc.bfgs deleted, as requested
Begin final coordinates

ATOMIC_POSITIONS (angstrom)
Pt              -5.7905686673       -3.8432452577       -0.0000000000
Pt              -3.8432452577       -5.7905686673        0.0000000000
Pt              -4.0461688763       -4.0461688763       -2.1173888803
Pt              -4.0461688763       -4.0461688763        2.1173888803
Pt              -5.7905686673       -0.0000000000       -3.8432452577
Pt              -4.0461688763       -2.1173888803       -4.0461688763
Pt              -3.8432452577        0.0000000000       -5.7905686673
Pt              -5.8408982393       -1.9504647669       -1.9504647669
Pt              -5.9208910881       -0.0000000000        0.0000000000
Pt              -3.8796956719       -1.9678479333        0.0000000000
Pt              -3.8796956719       -0.0000000000       -1.9678479333
Pt              -5.8408982393       -1.9504647669        1.9504647669
Pt              -5.7905686673        0.0000000000        3.8432452577
Pt              -4.0461688763       -2.1173888803        4.0461688763
Pt              -3.8796956719        0.0000000000        1.9678479333
Pt              -3.8432452577       -0.0000000000        5.7905686673
Pt              -4.0461688763        2.1173888803       -4.0461688763
Pt              -5.8408982393        1.9504647669       -1.9504647669
Pt              -5.7905686673        3.8432452577       -0.0000000000
Pt              -3.8796956719        1.9678479333       -0.0000000000
Pt              -4.0461688763        4.0461688763       -2.1173888803
Pt              -5.8408982393        1.9504647669        1.9504647669
Pt              -4.0461688763        2.1173888803        4.0461688763
Pt              -4.0461688763        4.0461688763        2.1173888803
Pt              -3.8432452577        5.7905686673        0.0000000000
Pt              -2.1173888803       -4.0461688763       -4.0461688763
Pt              -0.0000000000       -5.7905686673       -3.8432452577
Pt              -0.0000000000       -3.8432452577       -5.7905686673
Pt              -1.9504647669       -5.8408982393       -1.9504647669
Pt              -1.9678479333       -3.8796956719       -0.0000000000
Pt               0.0000000000       -5.9208910881       -0.0000000000
Pt              -0.0000000000       -3.8796956719       -1.9678479333
Pt              -1.9504647669       -5.8408982393        1.9504647669
Pt              -2.1173888803       -4.0461688763        4.0461688763
Pt               0.0000000000       -5.7905686673        3.8432452577
Pt               0.0000000000       -3.8796956719        1.9678479333
Pt               0.0000000000       -3.8432452577        5.7905686673
Pt              -1.9504647669       -1.9504647669       -5.8408982393
Pt              -1.9678479333       -0.0000000000       -3.8796956719
Pt               0.0000000000       -1.9678479333       -3.8796956719
Pt              -0.0000000000        0.0000000000       -5.9208910881
Pt              -2.0302079590       -2.0302079590       -2.0302079590
Pt              -1.9624404098       -0.0000000000        0.0000000000
Pt              -0.0000000000       -1.9624404098        0.0000000000
Pt               0.0000000000       -0.0000000000       -1.9624404098
Pt              -2.0302079590       -2.0302079590        2.0302079590
Pt              -1.9678479333        0.0000000000        3.8796956719
Pt               0.0000000000       -1.9678479333        3.8796956719
Pt               0.0000000000        0.0000000000        1.9624404098
Pt              -1.9504647669       -1.9504647669        5.8408982393
Pt               0.0000000000        0.0000000000        5.9208910881
Pt              -1.9504647669        1.9504647669       -5.8408982393
Pt              -2.1173888803        4.0461688763       -4.0461688763
Pt               0.0000000000        1.9678479333       -3.8796956719
Pt              -0.0000000000        3.8432452577       -5.7905686673
Pt              -2.0302079590        2.0302079590       -2.0302079590
Pt              -1.9678479333        3.8796956719        0.0000000000
Pt              -0.0000000000        1.9624404098       -0.0000000000
Pt               0.0000000000        3.8796956719       -1.9678479333
Pt              -2.0302079590        2.0302079590        2.0302079590
[...]
Pt               4.0461688763        2.1173888803        4.0461688763
Pt               4.0461688763        4.0461688763        2.1173888803
Pt               1.9504647669        1.9504647669        5.8408982393
Pt               1.9504647669        5.8408982393       -1.9504647669
Pt               3.8432452577        5.7905686673        0.0000000000
Pt               1.9504647669        5.8408982393        1.9504647669
Pt               5.7905686673       -3.8432452577        0.0000000000
Pt               5.7905686673       -0.0000000000       -3.8432452577
Pt               5.8408982393       -1.9504647669       -1.9504647669
Pt               5.9208910881       -0.0000000000        0.0000000000
Pt               5.8408982393       -1.9504647669        1.9504647669
Pt               5.7905686673        0.0000000000        3.8432452577
Pt               5.8408982393        1.9504647669       -1.9504647669
Pt               5.7905686673        3.8432452577        0.0000000000
Pt               5.8408982393        1.9504647669        1.9504647669
End final coordinates

     Writing all to output data dir ./out/calc.save/ :
     XML data file, charge density, pseudopotentials, collected wavefunctions

     General routines

     Parallel routines

   This run was terminated on:   2: 1:37  10May2025

   JOB DONE.