     Program PWSCF v.7.3.1 starts on 14May2025 at 16:30:51

     Reading input from espresso.pwi
Warning: card   &CELL ignored
Warning: card      CELL_DOFREE = 'IBRAV' ignored
Warning: card / ignored

     Current dimensions of program PWSCF are:
     Max number of different atomic species (ntypx) = 10
     Max number of k-points (npk) =  40000
     Max angular momentum in pseudopotentials (lmaxx) =  4
     Message from routine iosys:
     restart disabled: needed files not found

     IMPORTANT: XC functional enforced from input :
     Exchange-correlation= RVV10
                           (   1   4  13   4  26   0   0)
     Any further DFT definition will be discarded
     Please, verify this is what you really want

     Atomic positions and unit cell read from directory:
     ./out/calc.save/
     Message from routine qexsd_readschema :
     xml data file ./out/calc.save/data-file-schema.xml not found
     Nothing found: using input atomic positions and unit cell

     gamma-point specific algorithms are used

     R & G space division:  proc/nbgrp/npool/nimage =      36
     Subspace diagonalization in iterative solution of the eigenvalue problem:
     one sub-group per band group will be used

     Using Slab Decomposition

     Title:
     calc

     bravais-lattice index     =            0
     lattice parameter (alat)  =      47.2432  a.u.
     unit-cell volume          =  105442.7265 (a.u.)^3
     number of atoms/cell      =          117
     number of atomic types    =            2
     number of electrons       =      1857.00
     number of Kohn-Sham states=         1115
     kinetic-energy cutoff     =      60.0000  Ry
     charge density cutoff     =     480.0000  Ry
     scf convergence threshold =      1.0E-06
     mixing beta               =       0.1000
     number of iterations used =            8  local-TF  mixing
     energy convergence thresh.=      1.0E-04
     force convergence thresh. =      1.0E-03
     Exchange-correlation= RVV10
                           (   1   4  13   4  26   0   0)
     nstep                     =        10000

     celldm(1)=  47.243153  celldm(2)=   0.000000  celldm(3)=   0.000000
     celldm(4)=   0.000000  celldm(5)=   0.000000  celldm(6)=   0.000000

     crystal axes: (cart. coord. in units of alat)
               a(1) = (   1.000000   0.000000   0.000000 )
               a(2) = (   0.000000   1.000000   0.000000 )
               a(3) = (   0.000000   0.000000   1.000000 )

     reciprocal axes: (cart. coord. in units 2 pi/alat)
               b(1) = (  1.000000  0.000000  0.000000 )
               b(2) = (  0.000000  1.000000  0.000000 )
               b(3) = (  0.000000  0.000000  1.000000 )

     PseudoPot. # 1 for Pt read from file:
     /home/james/work/espresso/SSSP_1.3.0_PBE_efficiency/pt_pbe_v1.4.uspp.F.UPF
     MD5 check sum: f09d6de1a584b5a045c4fc126da2d0c4
     Pseudo is Ultrasoft + core correction, Zval = 16.0
     Generated by new atomic code, or converted to UPF format
     Using radial grid of  985 points,  6 beta functions with:
                l(1) =   0
                l(2) =   0
                l(3) =   1
                l(4) =   1
                l(5) =   2
                l(6) =   2
     Q(r) pseudized with  8 coefficients,  rinner =    1.300   1.300   1.300
                                                       1.300   1.300

     PseudoPot. # 2 for H  read from file:
     /home/james/work/espresso/SSSP_1.3.0_PBE_efficiency/H.pbe-rrkjus_psl.1.0.0.UPF
     MD5 check sum: f52b6d4d1c606e5624b1dc7b2218f220
     Pseudo is Ultrasoft, Zval =  1.0
     Generated using "atomic" code by A. Dal Corso  v.5.1
     Using radial grid of  929 points,  2 beta functions with:
                l(1) =   0
                l(2) =   0
     Q(r) pseudized with 0 coefficients

     atomic species   valence    mass     pseudopotential
     Pt               16.00   195.08400     Pt( 1.00)
     H                 1.00     1.00800     H ( 1.00)

     Starting magnetic structure
     atomic species   magnetization
     Pt              0.010
     H               0.020

     No symmetry found

                                    s                        frac. trans.

      isym =  1     identity

 cryst.   s( 1) = (     1          0          0      )
                  (     0          1          0      )
                  (     0          0          1      )

 cart.    s( 1) = (  1.0000000  0.0000000  0.0000000 )
                  (  0.0000000  1.0000000  0.0000000 )
                  (  0.0000000  0.0000000  1.0000000 )

   Cartesian axes

     site n.     atom                  positions (alat units)
         1        Pt     tau(   1) = (  -0.2317675  -0.1538076   0.0000000  )
         2        Pt     tau(   2) = (  -0.1538076  -0.2317675   0.0000000  )
         3        Pt     tau(   3) = (  -0.1617552  -0.1617552  -0.0847262  )
         4        Pt     tau(   4) = (  -0.1617552  -0.1617552   0.0847262  )
         5        Pt     tau(   5) = (  -0.2317675   0.0000000  -0.1538076  )
         6        Pt     tau(   6) = (  -0.1617552  -0.0847262  -0.1617552  )
         7        Pt     tau(   7) = (  -0.1538076   0.0000000  -0.2317675  )
         8        Pt     tau(   8) = (  -0.2338884  -0.0780549  -0.0780549  )
         9        Pt     tau(   9) = (  -0.2370085   0.0000000   0.0000000  )
        10        Pt     tau(  10) = (  -0.1554443  -0.0788784   0.0000000  )
        11        Pt     tau(  11) = (  -0.1554443   0.0000000  -0.0788784  )
        12        Pt     tau(  12) = (  -0.2338884  -0.0780549   0.0780549  )
        13        Pt     tau(  13) = (  -0.2317675   0.0000000   0.1538076  )
        14        Pt     tau(  14) = (  -0.1617552  -0.0847262   0.1617552  )
        15        Pt     tau(  15) = (  -0.1554443   0.0000000   0.0788784  )
        16        Pt     tau(  16) = (  -0.1538076   0.0000000   0.2317675  )
        17        Pt     tau(  17) = (  -0.1617552   0.0847262  -0.1617552  )
        18        Pt     tau(  18) = (  -0.2338884   0.0780549  -0.0780549  )
        19        Pt     tau(  19) = (  -0.2317675   0.1538076   0.0000000  )
        20        Pt     tau(  20) = (  -0.1554443   0.0788784   0.0000000  )
        21        Pt     tau(  21) = (  -0.1617552   0.1617552  -0.0847262  )
        22        Pt     tau(  22) = (  -0.2338884   0.0780549   0.0780549  )
        23        Pt     tau(  23) = (  -0.1617552   0.0847262   0.1617552  )
        24        Pt     tau(  24) = (  -0.1617552   0.1617552   0.0847262  )
        25        Pt     tau(  25) = (  -0.1538076   0.2317675   0.0000000  )
        26        Pt     tau(  26) = (  -0.0847262  -0.1617552  -0.1617552  )
        27        Pt     tau(  27) = (   0.0000000  -0.2317675  -0.1538076  )
        28        Pt     tau(  28) = (   0.0000000  -0.1538076  -0.2317675  )
        29        Pt     tau(  29) = (  -0.0780549  -0.2338884  -0.0780549  )
        30        Pt     tau(  30) = (  -0.0788784  -0.1554443   0.0000000  )
        31        Pt     tau(  31) = (   0.0000000  -0.2370085   0.0000000  )
        32        Pt     tau(  32) = (   0.0000000  -0.1554443  -0.0788784  )
        33        Pt     tau(  33) = (  -0.0780549  -0.2338884   0.0780549  )
        34        Pt     tau(  34) = (  -0.0847262  -0.1617552   0.1617552  )
        35        Pt     tau(  35) = (   0.0000000  -0.2317675   0.1538076  )
        36        Pt     tau(  36) = (   0.0000000  -0.1554443   0.0788784  )
        37        Pt     tau(  37) = (   0.0000000  -0.1538076   0.2317675  )
        38        Pt     tau(  38) = (  -0.0780549  -0.0780549  -0.2338884  )
        39        Pt     tau(  39) = (  -0.0788784   0.0000000  -0.1554443  )
        40        Pt     tau(  40) = (   0.0000000  -0.0788784  -0.1554443  )
        41        Pt     tau(  41) = (   0.0000000   0.0000000  -0.2370085  )
        42        Pt     tau(  42) = (  -0.0808740  -0.0808740  -0.0808740  )
        43        Pt     tau(  43) = (  -0.0786873   0.0000000   0.0000000  )
        44        Pt     tau(  44) = (   0.0000000  -0.0786873   0.0000000  )
        45        Pt     tau(  45) = (   0.0000000   0.0000000  -0.0786873  )
        46        Pt     tau(  46) = (  -0.0808740  -0.0808740   0.0808740  )
        47        Pt     tau(  47) = (  -0.0788784   0.0000000   0.1554443  )
        48        Pt     tau(  48) = (   0.0000000  -0.0788784   0.1554443  )
        49        Pt     tau(  49) = (   0.0000000   0.0000000   0.0786873  )
        50        Pt     tau(  50) = (  -0.0780549  -0.0780549   0.2338884  )
        51        Pt     tau(  51) = (   0.0000000   0.0000000   0.2370085  )
        52        Pt     tau(  52) = (  -0.0780549   0.0780549  -0.2338884  )
        53        Pt     tau(  53) = (  -0.0847262   0.1617552  -0.1617552  )
        54        Pt     tau(  54) = (   0.0000000   0.0788784  -0.1554443  )
        55        Pt     tau(  55) = (   0.0000000   0.1538076  -0.2317675  )
        56        Pt     tau(  56) = (  -0.0808740   0.0808740  -0.0808740  )
        57        Pt     tau(  57) = (  -0.0788784   0.1554443   0.0000000  )
        58        Pt     tau(  58) = (   0.0000000   0.0786873   0.0000000  )
        59        Pt     tau(  59) = (   0.0000000   0.1554443  -0.0788784  )
        60        Pt     tau(  60) = (  -0.0808740   0.0808740   0.0808740  )
[...]
       103        Pt     tau( 103) = (   0.1617552   0.1617552   0.0847262  )
       104        Pt     tau( 104) = (   0.0780549   0.0780549   0.2338884  )
       105        Pt     tau( 105) = (   0.0780549   0.2338884  -0.0780549  )
       106        Pt     tau( 106) = (   0.1538076   0.2317675   0.0000000  )
       107        Pt     tau( 107) = (   0.0780549   0.2338884   0.0780549  )
       108        Pt     tau( 108) = (   0.2317675  -0.1538076   0.0000000  )
       109        Pt     tau( 109) = (   0.2317675   0.0000000  -0.1538076  )
       110        Pt     tau( 110) = (   0.2338884  -0.0780549  -0.0780549  )
       111        Pt     tau( 111) = (   0.2370085   0.0000000   0.0000000  )
       112        Pt     tau( 112) = (   0.2338884  -0.0780549   0.0780549  )
       113        Pt     tau( 113) = (   0.2317675   0.0000000   0.1538076  )
       114        Pt     tau( 114) = (   0.2338884   0.0780549  -0.0780549  )
       115        Pt     tau( 115) = (   0.2317675   0.1538076   0.0000000  )
       116        Pt     tau( 116) = (   0.2338884   0.0780549   0.0780549  )
       117        H      tau( 117) = (  -0.2441376  -0.1592741  -0.0805498  )

   Crystallographic axes

     site n.     atom                  positions (cryst. coord.)
         1        Pt     tau(   1) = ( -0.2317675 -0.1538076  0.0000000  )
         2        Pt     tau(   2) = ( -0.1538076 -0.2317675  0.0000000  )
         3        Pt     tau(   3) = ( -0.1617552 -0.1617552 -0.0847262  )
         4        Pt     tau(   4) = ( -0.1617552 -0.1617552  0.0847262  )
         5        Pt     tau(   5) = ( -0.2317675  0.0000000 -0.1538076  )
         6        Pt     tau(   6) = ( -0.1617552 -0.0847262 -0.1617552  )
         7        Pt     tau(   7) = ( -0.1538076  0.0000000 -0.2317675  )
         8        Pt     tau(   8) = ( -0.2338884 -0.0780549 -0.0780549  )
[...]
     atom   11 type  1   force =     0.00000000    0.00000000    0.00000000
     atom   12 type  1   force =     0.00000000    0.00000000    0.00000000
     atom   13 type  1   force =     0.00000000    0.00000000    0.00000000
     atom   14 type  1   force =     0.00000000    0.00000000    0.00000000
     atom   15 type  1   force =     0.00000000    0.00000000    0.00000000
     atom   16 type  1   force =     0.00000000    0.00000000    0.00000000
     atom   17 type  1   force =     0.00000000    0.00000000    0.00000000
     atom   18 type  1   force =     0.00000000    0.00000000    0.00000000
     atom   19 type  1   force =     0.00000000    0.00000000    0.00000000
     atom   20 type  1   force =     0.00000000    0.00000000    0.00000000
     atom   21 type  1   force =     0.00000000    0.00000000    0.00000000
     atom   22 type  1   force =     0.00000000    0.00000000    0.00000000
     atom   23 type  1   force =     0.00000000    0.00000000    0.00000000
     atom   24 type  1   force =     0.00000000    0.00000000    0.00000000
     atom   25 type  1   force =     0.00000000    0.00000000    0.00000000
     atom   26 type  1   force =     0.00000000    0.00000000    0.00000000
     atom   27 type  1   force =     0.00000000    0.00000000    0.00000000
     atom   28 type  1   force =     0.00000000    0.00000000    0.00000000
     atom   29 type  1   force =     0.00000000    0.00000000    0.00000000
     atom   30 type  1   force =     0.00000000    0.00000000    0.00000000
     atom   31 type  1   force =     0.00000000    0.00000000    0.00000000
     atom   32 type  1   force =     0.00000000    0.00000000    0.00000000
     atom   33 type  1   force =     0.00000000    0.00000000    0.00000000
     atom   34 type  1   force =     0.00000000    0.00000000    0.00000000
     atom   35 type  1   force =     0.00000000    0.00000000    0.00000000
     atom   36 type  1   force =     0.00000000    0.00000000    0.00000000
     atom   37 type  1   force =     0.00000000    0.00000000    0.00000000
     atom   38 type  1   force =     0.00000000    0.00000000    0.00000000
     atom   39 type  1   force =     0.00000000    0.00000000    0.00000000
     atom   40 type  1   force =     0.00000000    0.00000000    0.00000000
     atom   41 type  1   force =     0.00000000    0.00000000    0.00000000
     atom   42 type  1   force =     0.00000000    0.00000000    0.00000000
     atom   43 type  1   force =     0.00000000    0.00000000    0.00000000
     atom   44 type  1   force =     0.00000000    0.00000000    0.00000000
     atom   45 type  1   force =     0.00000000    0.00000000    0.00000000
     atom   46 type  1   force =     0.00000000    0.00000000    0.00000000
     atom   47 type  1   force =     0.00000000    0.00000000    0.00000000
     atom   48 type  1   force =     0.00000000    0.00000000    0.00000000
     atom   49 type  1   force =     0.00000000    0.00000000    0.00000000
     atom   50 type  1   force =     0.00000000    0.00000000    0.00000000
     atom   51 type  1   force =     0.00000000    0.00000000    0.00000000
     atom   52 type  1   force =     0.00000000    0.00000000    0.00000000
     atom   53 type  1   force =     0.00000000    0.00000000    0.00000000
     atom   54 type  1   force =     0.00000000    0.00000000    0.00000000
     atom   55 type  1   force =     0.00000000    0.00000000    0.00000000
     atom   56 type  1   force =     0.00000000    0.00000000    0.00000000
     atom   57 type  1   force =     0.00000000    0.00000000    0.00000000
     atom   58 type  1   force =     0.00000000    0.00000000    0.00000000
     atom   59 type  1   force =     0.00000000    0.00000000    0.00000000
     atom   60 type  1   force =     0.00000000    0.00000000    0.00000000
[...]
     atom  103 type  1   force =     0.00000000    0.00000000    0.00000000
     atom  104 type  1   force =     0.00000000    0.00000000    0.00000000
     atom  105 type  1   force =     0.00000000    0.00000000    0.00000000
     atom  106 type  1   force =     0.00000000    0.00000000    0.00000000
     atom  107 type  1   force =     0.00000000    0.00000000    0.00000000
     atom  108 type  1   force =     0.00000000    0.00000000    0.00000000
     atom  109 type  1   force =     0.00000000    0.00000000    0.00000000
     atom  110 type  1   force =     0.00000000    0.00000000    0.00000000
     atom  111 type  1   force =     0.00000000    0.00000000    0.00000000
     atom  112 type  1   force =     0.00000000    0.00000000    0.00000000
     atom  113 type  1   force =     0.00000000    0.00000000    0.00000000
     atom  114 type  1   force =     0.00000000    0.00000000    0.00000000
     atom  115 type  1   force =     0.00000000    0.00000000    0.00000000
     atom  116 type  1   force =     0.00000000    0.00000000    0.00000000
     atom  117 type  2   force =     0.00000000    0.00000000    0.00000000
     The SCF correction term to forces
     atom    1 type  1   force =     0.00004313    0.00003756    0.00001445
     atom    2 type  1   force =     0.00003192    0.00004440   -0.00001366
     atom    3 type  1   force =     0.00004614    0.00004733    0.00003577
     atom    4 type  1   force =     0.00005304    0.00003195    0.00000017
     atom    5 type  1   force =     0.00002751    0.00000354    0.00003005
     atom    6 type  1   force =     0.00001941    0.00003447    0.00003823
     atom    7 type  1   force =     0.00004375    0.00000054    0.00005372
     atom    8 type  1   force =     0.00004277    0.00004543    0.00004856
     atom    9 type  1   force =     0.00002036    0.00000601   -0.00001624
     atom   10 type  1   force =     0.00006274    0.00006190    0.00001344
     atom   11 type  1   force =    -0.00001315    0.00002100   -0.00001463
     atom   12 type  1   force =     0.00005142    0.00004287   -0.00002659
     atom   13 type  1   force =     0.00004413    0.00002911   -0.00003763
     atom   14 type  1   force =     0.00004257    0.00005450   -0.00002292
     atom   15 type  1   force =     0.00000628   -0.00001195   -0.00003614
     atom   16 type  1   force =     0.00004202    0.00001944   -0.00004561
     atom   17 type  1   force =     0.00003615   -0.00001790    0.00004507
     atom   18 type  1   force =     0.00001300   -0.00004398    0.00002424
     atom   19 type  1   force =     0.00003356   -0.00003950    0.00000320
     atom   20 type  1   force =     0.00000838   -0.00003273   -0.00000509
     atom   21 type  1   force =     0.00003062   -0.00003429    0.00003650
     atom   22 type  1   force =     0.00003169   -0.00003029   -0.00003359
     atom   23 type  1   force =     0.00002932   -0.00001279   -0.00004761
     atom   24 type  1   force =     0.00002068   -0.00003891   -0.00002382
     atom   25 type  1   force =     0.00003412   -0.00003974    0.00000967
     atom   26 type  1   force =     0.00002754    0.00003442    0.00002924
     atom   27 type  1   force =     0.00000605    0.00006088    0.00003863
     atom   28 type  1   force =     0.00001935    0.00004057    0.00004748
     atom   29 type  1   force =     0.00001736    0.00003110   -0.00000477
     atom   30 type  1   force =    -0.00000483    0.00000524   -0.00001662
     atom   31 type  1   force =    -0.00000761    0.00004957   -0.00002195
     atom   32 type  1   force =    -0.00002047    0.00001356   -0.00000551
     atom   33 type  1   force =     0.00003235    0.00002470   -0.00003395
     atom   34 type  1   force =     0.00005311    0.00004815   -0.00003636
     atom   35 type  1   force =     0.00001069    0.00004556   -0.00004124
     atom   36 type  1   force =    -0.00000597    0.00002346   -0.00002145
     atom   37 type  1   force =     0.00001324    0.00004373   -0.00003555
     atom   38 type  1   force =     0.00003043    0.00002777    0.00006304
     atom   39 type  1   force =     0.00001717   -0.00002276    0.00003427
     atom   40 type  1   force =    -0.00000095   -0.00000515    0.00003533
     atom   41 type  1   force =     0.00000948   -0.00001117    0.00005273
     atom   42 type  1   force =    -0.00000102   -0.00001586   -0.00003510
     atom   43 type  1   force =    -0.00002073   -0.00001577   -0.00001990
     atom   44 type  1   force =    -0.00000232   -0.00001191   -0.00002066
     atom   45 type  1   force =    -0.00001754   -0.00000790    0.00000035
     atom   46 type  1   force =    -0.00001875   -0.00000176   -0.00002249
     atom   47 type  1   force =     0.00000483   -0.00000148   -0.00004127
     atom   48 type  1   force =    -0.00000047    0.00002118   -0.00004220
     atom   49 type  1   force =    -0.00000812    0.00000213   -0.00000043
     atom   50 type  1   force =     0.00003527    0.00004217   -0.00004033
     atom   51 type  1   force =     0.00000361    0.00001182   -0.00005467
     atom   52 type  1   force =     0.00002968   -0.00001633    0.00004324
     atom   53 type  1   force =     0.00002805   -0.00002930    0.00004527
     atom   54 type  1   force =     0.00000220   -0.00002879    0.00004894
     atom   55 type  1   force =     0.00000453   -0.00002981    0.00003744
     atom   56 type  1   force =     0.00001333   -0.00002342    0.00002356
     atom   57 type  1   force =     0.00001219   -0.00002536    0.00000628
     atom   58 type  1   force =    -0.00000613   -0.00000332    0.00000231
     atom   59 type  1   force =     0.00000483   -0.00003176    0.00002951
     atom   60 type  1   force =    -0.00000155   -0.00001894   -0.00001568
[...]
     atom  103 type  1   force =    -0.00003294   -0.00003312   -0.00002350
     atom  104 type  1   force =    -0.00001610   -0.00001419   -0.00004041
     atom  105 type  1   force =    -0.00001383   -0.00003796    0.00003240
     atom  106 type  1   force =    -0.00003274   -0.00004327    0.00000861
     atom  107 type  1   force =    -0.00001548   -0.00003963   -0.00001980
     atom  108 type  1   force =    -0.00002937    0.00003175   -0.00000493
     atom  109 type  1   force =    -0.00003286   -0.00000173    0.00003987
     atom  110 type  1   force =    -0.00003034    0.00002406    0.00002095
     atom  111 type  1   force =    -0.00004005    0.00001134    0.00000457
     atom  112 type  1   force =    -0.00002855    0.00002939   -0.00002618
     atom  113 type  1   force =    -0.00003338    0.00001145   -0.00003899
     atom  114 type  1   force =    -0.00003354   -0.00001722    0.00003278
     atom  115 type  1   force =    -0.00004257   -0.00003454    0.00000640
     atom  116 type  1   force =    -0.00003957   -0.00001426   -0.00002433
     atom  117 type  2   force =     0.00000167    0.00000021    0.00000070

     Total force =     0.004510     Total SCF correction =     0.000540
     SCF correction compared to forces is large: reduce conv_thr to get better values
     Energy error            =      3.3E-05 Ry
     Gradient error          =      9.2E-04 Ry/Bohr

     bfgs converged in  13 scf cycles and  12 bfgs steps
     (criteria: energy <  1.0E-04 Ry, force <  1.0E-03 Ry/Bohr)

     End of BFGS Geometry Optimization

     Final energy             =  -24449.0084129610 Ry

     File ./out/calc.bfgs deleted, as requested
Begin final coordinates

ATOMIC_POSITIONS (angstrom)
Pt              -5.7840616119       -3.8503359038        0.0252502361
Pt              -3.8224865990       -5.7980148192        0.0102081171
Pt              -4.1189543666       -4.1430559161       -2.2013985309
Pt              -4.0564430112       -4.0591982240        2.1294942093
Pt              -5.7952607398        0.0131303196       -3.8521326129
Pt              -4.0378321269       -2.1104709373       -4.0679945654
Pt              -3.8336832864        0.0127072646       -5.7946336707
Pt              -5.8684871358       -1.9526370832       -2.0058009914
Pt              -5.9204301395       -0.0094277273       -0.0121913970
Pt              -3.8955813189       -1.9818682951       -0.0213771030
Pt              -3.8931036069       -0.0020712033       -1.9734699572
Pt              -5.8298382015       -1.9498998325        1.9643208841
Pt              -5.7905614142        0.0074710425        3.8474454958
Pt              -4.0476607143       -2.1249417613        4.0529122019
Pt              -3.8838701047       -0.0065349449        1.9649730948
Pt              -3.8374416714        0.0001331065        5.7905537684
Pt              -4.0431781163        2.1209192613       -4.0426296353
Pt              -5.8381069771        1.9549284062       -1.9516916431
Pt              -5.7876575732        3.8417447566       -0.0008986570
Pt              -3.8797477493        1.9636882321       -0.0041828094
Pt              -4.0492449552        4.0525038623       -2.1226766601
Pt              -5.8330189182        1.9444883870        1.9456634263
Pt              -4.0516094501        2.1223231325        4.0488031337
Pt              -4.0495110513        4.0496286266        2.1194436819
Pt              -3.8404988648        5.7909877280       -0.0005873988
Pt              -2.1236311591       -4.0457940725       -4.0517097525
Pt              -0.0011894720       -5.7858115945       -3.8391471195
Pt               0.0045802513       -3.8362138990       -5.7903885231
Pt              -1.9653577033       -5.8294151449       -1.9585439425
Pt              -1.9824079823       -3.8772785599       -0.0078368369
Pt              -0.0057603062       -5.9091600438       -0.0035385532
Pt               0.0009566949       -3.8791768914       -1.9675610054
Pt              -1.9483411600       -5.8249753762        1.9593342922
Pt              -2.1181342000       -4.0487818853        4.0602333705
Pt               0.0032466591       -5.7908673524        3.8452844268
Pt               0.0031844090       -3.8762938233        1.9701664932
Pt               0.0067701435       -3.8369940036        5.7923813754
Pt              -1.9448722088       -1.9477055167       -5.8442892720
Pt              -1.9698356212       -0.0076436159       -3.8664742573
Pt              -0.0077386076       -1.9696591326       -3.8681783495
Pt              -0.0009028579       -0.0010083755       -5.9136482705
Pt              -2.0580378630       -2.0535509489       -2.0288018092
Pt              -1.9720628939       -0.0137401478       -0.0066425939
Pt              -0.0078001901       -1.9672103999       -0.0040341260
Pt               0.0010378002       -0.0011698146       -1.9569015978
Pt              -2.0385335198       -2.0359091396        2.0253947538
Pt              -1.9710578328       -0.0028542179        3.8734414397
Pt              -0.0012354538       -1.9710309423        3.8765462899
Pt              -0.0040945117       -0.0033737832        1.9599431143
Pt              -1.9523190572       -1.9520859090        5.8356602324
Pt               0.0005340129       -0.0007980646        5.9137105259
Pt              -1.9460304297        1.9489565686       -5.8321047582
Pt              -2.1206802010        4.0510589027       -4.0464695319
Pt              -0.0026119063        1.9655824395       -3.8758065075
Pt              -0.0003925476        3.8421589842       -5.7890450610
Pt              -2.0278163145        2.0281567601       -2.0251341030
Pt              -1.9700161126        3.8761361151       -0.0017054471
Pt              -0.0018234805        1.9598488305        0.0004560260
Pt               0.0014990992        3.8793373683       -1.9712649332
Pt              -2.0351585748        2.0239896786        2.0273485062
[...]
Pt               4.0502561108        4.0507421624        2.1226358814
Pt               1.9491083373        1.9497810886        5.8367860670
Pt               1.9506452461        5.8384595133       -1.9500868333
Pt               3.8423372095        5.7907870722       -0.0010950580
Pt               1.9501108314        5.8363589916        1.9497906456
Pt               5.7898558763       -3.8416998339        0.0009557957
Pt               5.7908300816        0.0005502921       -3.8407653904
Pt               5.8373004728       -1.9504027955       -1.9495605040
Pt               5.9176527390        0.0000571006        0.0006497790
Pt               5.8374744620       -1.9512815856        1.9503672211
Pt               5.7898625714       -0.0012094210        3.8422305751
Pt               5.8362165660        1.9508919230       -1.9496204844
Pt               5.7873926018        3.8439843540        0.0006461877
Pt               5.8370336050        1.9494112321        1.9496278458
H               -5.9389700128       -3.8468789905       -1.8714819559
End final coordinates

     Writing all to output data dir ./out/calc.save/ :
     XML data file, charge density, pseudopotentials, collected wavefunctions

     General routines

     Parallel routines

   This run was terminated on:   8:48:24  21May2025

   JOB DONE.