     Program PWSCF v.7.3.1 starts on 28Apr2025 at 11: 1:23

     Reading input from espresso.pwi
Warning: card   &CELL ignored
Warning: card      CELL_DOFREE = 'IBRAV' ignored
Warning: card / ignored

     Current dimensions of program PWSCF are:
     Max number of different atomic species (ntypx) = 10
     Max number of k-points (npk) =  40000
     Max angular momentum in pseudopotentials (lmaxx) =  4

     IMPORTANT: XC functional enforced from input :
     Exchange-correlation= RVV10
                           (   1   4  13   4  26   0   0)
     Any further DFT definition will be discarded
     Please, verify this is what you really want

     gamma-point specific algorithms are used
     Message from routine setup:
     using ibrav=0 with symmetry is DISCOURAGED, use correct ibrav instead

     R & G space division:  proc/nbgrp/npool/nimage =      36
     Subspace diagonalization in iterative solution of the eigenvalue problem:
     one sub-group per band group will be used

     Using Slab Decomposition

     Title:
     calc

     bravais-lattice index     =            0
     lattice parameter (alat)  =      47.2432  a.u.
     unit-cell volume          =  105442.7265 (a.u.)^3
     number of atoms/cell      =          117
     number of atomic types    =            2
     number of electrons       =      1857.00
     number of Kohn-Sham states=         1115
     kinetic-energy cutoff     =      60.0000  Ry
     charge density cutoff     =     480.0000  Ry
     scf convergence threshold =      1.0E-06
     mixing beta               =       0.1000
     number of iterations used =            8  local-TF  mixing
     energy convergence thresh.=      1.0E-04
     force convergence thresh. =      1.0E-03
     Exchange-correlation= RVV10
                           (   1   4  13   4  26   0   0)
     nstep                     =        10000

     celldm(1)=  47.243153  celldm(2)=   0.000000  celldm(3)=   0.000000
     celldm(4)=   0.000000  celldm(5)=   0.000000  celldm(6)=   0.000000

     crystal axes: (cart. coord. in units of alat)
               a(1) = (   1.000000   0.000000   0.000000 )
               a(2) = (   0.000000   1.000000   0.000000 )
               a(3) = (   0.000000   0.000000   1.000000 )

     reciprocal axes: (cart. coord. in units 2 pi/alat)
               b(1) = (  1.000000  0.000000  0.000000 )
               b(2) = (  0.000000  1.000000  0.000000 )
               b(3) = (  0.000000  0.000000  1.000000 )

     PseudoPot. # 1 for Pt read from file:
     /home/james/work/espresso/SSSP_1.3.0_PBE_efficiency/pt_pbe_v1.4.uspp.F.UPF
     MD5 check sum: f09d6de1a584b5a045c4fc126da2d0c4
     Pseudo is Ultrasoft + core correction, Zval = 16.0
     Generated by new atomic code, or converted to UPF format
     Using radial grid of  985 points,  6 beta functions with:
                l(1) =   0
                l(2) =   0
                l(3) =   1
                l(4) =   1
                l(5) =   2
                l(6) =   2
     Q(r) pseudized with  8 coefficients,  rinner =    1.300   1.300   1.300
                                                       1.300   1.300

     PseudoPot. # 2 for H  read from file:
     /home/james/work/espresso/SSSP_1.3.0_PBE_efficiency/H.pbe-rrkjus_psl.1.0.0.UPF
     MD5 check sum: f52b6d4d1c606e5624b1dc7b2218f220
     Pseudo is Ultrasoft, Zval =  1.0
     Generated using "atomic" code by A. Dal Corso  v.5.1
     Using radial grid of  929 points,  2 beta functions with:
                l(1) =   0
                l(2) =   0
     Q(r) pseudized with 0 coefficients

     atomic species   valence    mass     pseudopotential
     Pt               16.00   195.08400     Pt( 1.00)
     H                 1.00     1.00800     H ( 1.00)

     Starting magnetic structure
     atomic species   magnetization
     Pt              0.010
     H               0.020

      2 Sym. Ops. (no inversion) found

                                    s                        frac. trans.

      isym =  1     identity

 cryst.   s( 1) = (     1          0          0      )
                  (     0          1          0      )
                  (     0          0          1      )

 cart.    s( 1) = (  1.0000000  0.0000000  0.0000000 )
                  (  0.0000000  1.0000000  0.0000000 )
                  (  0.0000000  0.0000000  1.0000000 )

      isym =  2     inv. 180 deg rotation - cart. axis [0,1,-1]

 cryst.   s( 2) = (     1          0          0      )
                  (     0          0          1      )
                  (     0          1          0      )

 cart.    s( 2) = (  1.0000000  0.0000000  0.0000000 )
                  (  0.0000000  0.0000000  1.0000000 )
                  (  0.0000000  1.0000000  0.0000000 )

   Cartesian axes

     site n.     atom                  positions (alat units)
         1        Pt     tau(   1) = (  -0.2317675  -0.1538076   0.0000000  )
         2        Pt     tau(   2) = (  -0.1538076  -0.2317675   0.0000000  )
         3        Pt     tau(   3) = (  -0.1617552  -0.1617552  -0.0847262  )
         4        Pt     tau(   4) = (  -0.1617552  -0.1617552   0.0847262  )
         5        Pt     tau(   5) = (  -0.2317675   0.0000000  -0.1538076  )
         6        Pt     tau(   6) = (  -0.1617552  -0.0847262  -0.1617552  )
         7        Pt     tau(   7) = (  -0.1538076   0.0000000  -0.2317675  )
         8        Pt     tau(   8) = (  -0.2338884  -0.0780549  -0.0780549  )
         9        Pt     tau(   9) = (  -0.2370085   0.0000000   0.0000000  )
        10        Pt     tau(  10) = (  -0.1554443  -0.0788784   0.0000000  )
        11        Pt     tau(  11) = (  -0.1554443   0.0000000  -0.0788784  )
        12        Pt     tau(  12) = (  -0.2338884  -0.0780549   0.0780549  )
        13        Pt     tau(  13) = (  -0.2317675   0.0000000   0.1538076  )
        14        Pt     tau(  14) = (  -0.1617552  -0.0847262   0.1617552  )
        15        Pt     tau(  15) = (  -0.1554443   0.0000000   0.0788784  )
        16        Pt     tau(  16) = (  -0.1538076   0.0000000   0.2317675  )
        17        Pt     tau(  17) = (  -0.1617552   0.0847262  -0.1617552  )
        18        Pt     tau(  18) = (  -0.2338884   0.0780549  -0.0780549  )
        19        Pt     tau(  19) = (  -0.2317675   0.1538076   0.0000000  )
        20        Pt     tau(  20) = (  -0.1554443   0.0788784   0.0000000  )
        21        Pt     tau(  21) = (  -0.1617552   0.1617552  -0.0847262  )
        22        Pt     tau(  22) = (  -0.2338884   0.0780549   0.0780549  )
        23        Pt     tau(  23) = (  -0.1617552   0.0847262   0.1617552  )
        24        Pt     tau(  24) = (  -0.1617552   0.1617552   0.0847262  )
        25        Pt     tau(  25) = (  -0.1538076   0.2317675   0.0000000  )
        26        Pt     tau(  26) = (  -0.0847262  -0.1617552  -0.1617552  )
        27        Pt     tau(  27) = (   0.0000000  -0.2317675  -0.1538076  )
        28        Pt     tau(  28) = (   0.0000000  -0.1538076  -0.2317675  )
        29        Pt     tau(  29) = (  -0.0780549  -0.2338884  -0.0780549  )
        30        Pt     tau(  30) = (  -0.0788784  -0.1554443   0.0000000  )
        31        Pt     tau(  31) = (   0.0000000  -0.2370085   0.0000000  )
        32        Pt     tau(  32) = (   0.0000000  -0.1554443  -0.0788784  )
        33        Pt     tau(  33) = (  -0.0780549  -0.2338884   0.0780549  )
        34        Pt     tau(  34) = (  -0.0847262  -0.1617552   0.1617552  )
        35        Pt     tau(  35) = (   0.0000000  -0.2317675   0.1538076  )
        36        Pt     tau(  36) = (   0.0000000  -0.1554443   0.0788784  )
        37        Pt     tau(  37) = (   0.0000000  -0.1538076   0.2317675  )
        38        Pt     tau(  38) = (  -0.0780549  -0.0780549  -0.2338884  )
        39        Pt     tau(  39) = (  -0.0788784   0.0000000  -0.1554443  )
        40        Pt     tau(  40) = (   0.0000000  -0.0788784  -0.1554443  )
        41        Pt     tau(  41) = (   0.0000000   0.0000000  -0.2370085  )
        42        Pt     tau(  42) = (  -0.0808740  -0.0808740  -0.0808740  )
        43        Pt     tau(  43) = (  -0.0786873   0.0000000   0.0000000  )
        44        Pt     tau(  44) = (   0.0000000  -0.0786873   0.0000000  )
        45        Pt     tau(  45) = (   0.0000000   0.0000000  -0.0786873  )
        46        Pt     tau(  46) = (  -0.0808740  -0.0808740   0.0808740  )
        47        Pt     tau(  47) = (  -0.0788784   0.0000000   0.1554443  )
        48        Pt     tau(  48) = (   0.0000000  -0.0788784   0.1554443  )
        49        Pt     tau(  49) = (   0.0000000   0.0000000   0.0786873  )
        50        Pt     tau(  50) = (  -0.0780549  -0.0780549   0.2338884  )
        51        Pt     tau(  51) = (   0.0000000   0.0000000   0.2370085  )
        52        Pt     tau(  52) = (  -0.0780549   0.0780549  -0.2338884  )
        53        Pt     tau(  53) = (  -0.0847262   0.1617552  -0.1617552  )
        54        Pt     tau(  54) = (   0.0000000   0.0788784  -0.1554443  )
        55        Pt     tau(  55) = (   0.0000000   0.1538076  -0.2317675  )
        56        Pt     tau(  56) = (  -0.0808740   0.0808740  -0.0808740  )
        57        Pt     tau(  57) = (  -0.0788784   0.1554443   0.0000000  )
        58        Pt     tau(  58) = (   0.0000000   0.0786873   0.0000000  )
        59        Pt     tau(  59) = (   0.0000000   0.1554443  -0.0788784  )
        60        Pt     tau(  60) = (  -0.0808740   0.0808740   0.0808740  )
[...]
       103        Pt     tau( 103) = (   0.1617552   0.1617552   0.0847262  )
       104        Pt     tau( 104) = (   0.0780549   0.0780549   0.2338884  )
       105        Pt     tau( 105) = (   0.0780549   0.2338884  -0.0780549  )
       106        Pt     tau( 106) = (   0.1538076   0.2317675   0.0000000  )
       107        Pt     tau( 107) = (   0.0780549   0.2338884   0.0780549  )
       108        Pt     tau( 108) = (   0.2317675  -0.1538076   0.0000000  )
       109        Pt     tau( 109) = (   0.2317675   0.0000000  -0.1538076  )
       110        Pt     tau( 110) = (   0.2338884  -0.0780549  -0.0780549  )
       111        Pt     tau( 111) = (   0.2370085   0.0000000   0.0000000  )
       112        Pt     tau( 112) = (   0.2338884  -0.0780549   0.0780549  )
       113        Pt     tau( 113) = (   0.2317675   0.0000000   0.1538076  )
       114        Pt     tau( 114) = (   0.2338884   0.0780549  -0.0780549  )
       115        Pt     tau( 115) = (   0.2317675   0.1538076   0.0000000  )
       116        Pt     tau( 116) = (   0.2338884   0.0780549   0.0780549  )
       117        H      tau( 117) = (  -0.2964474  -0.1032578  -0.1032578  )

   Crystallographic axes

     site n.     atom                  positions (cryst. coord.)
         1        Pt     tau(   1) = ( -0.2317675 -0.1538076  0.0000000  )
         2        Pt     tau(   2) = ( -0.1538076 -0.2317675  0.0000000  )
         3        Pt     tau(   3) = ( -0.1617552 -0.1617552 -0.0847262  )
         4        Pt     tau(   4) = ( -0.1617552 -0.1617552  0.0847262  )
         5        Pt     tau(   5) = ( -0.2317675  0.0000000 -0.1538076  )
[...]
     atom   11 type  1   force =     0.00000000    0.00000000    0.00000000
     atom   12 type  1   force =     0.00000000    0.00000000    0.00000000
     atom   13 type  1   force =     0.00000000    0.00000000    0.00000000
     atom   14 type  1   force =     0.00000000    0.00000000    0.00000000
     atom   15 type  1   force =     0.00000000    0.00000000    0.00000000
     atom   16 type  1   force =     0.00000000    0.00000000    0.00000000
     atom   17 type  1   force =     0.00000000    0.00000000    0.00000000
     atom   18 type  1   force =     0.00000000    0.00000000    0.00000000
     atom   19 type  1   force =     0.00000000    0.00000000    0.00000000
     atom   20 type  1   force =     0.00000000    0.00000000    0.00000000
     atom   21 type  1   force =     0.00000000    0.00000000    0.00000000
     atom   22 type  1   force =     0.00000000    0.00000000    0.00000000
     atom   23 type  1   force =     0.00000000    0.00000000    0.00000000
     atom   24 type  1   force =     0.00000000    0.00000000    0.00000000
     atom   25 type  1   force =     0.00000000    0.00000000    0.00000000
     atom   26 type  1   force =     0.00000000    0.00000000    0.00000000
     atom   27 type  1   force =     0.00000000    0.00000000    0.00000000
     atom   28 type  1   force =     0.00000000    0.00000000    0.00000000
     atom   29 type  1   force =     0.00000000    0.00000000    0.00000000
     atom   30 type  1   force =     0.00000000    0.00000000    0.00000000
     atom   31 type  1   force =     0.00000000    0.00000000    0.00000000
     atom   32 type  1   force =     0.00000000    0.00000000    0.00000000
     atom   33 type  1   force =     0.00000000    0.00000000    0.00000000
     atom   34 type  1   force =     0.00000000    0.00000000    0.00000000
     atom   35 type  1   force =     0.00000000    0.00000000    0.00000000
     atom   36 type  1   force =     0.00000000    0.00000000    0.00000000
     atom   37 type  1   force =     0.00000000    0.00000000    0.00000000
     atom   38 type  1   force =     0.00000000    0.00000000    0.00000000
     atom   39 type  1   force =     0.00000000    0.00000000    0.00000000
     atom   40 type  1   force =     0.00000000    0.00000000    0.00000000
     atom   41 type  1   force =     0.00000000    0.00000000    0.00000000
     atom   42 type  1   force =     0.00000000    0.00000000    0.00000000
     atom   43 type  1   force =     0.00000000    0.00000000    0.00000000
     atom   44 type  1   force =     0.00000000    0.00000000    0.00000000
     atom   45 type  1   force =     0.00000000    0.00000000    0.00000000
     atom   46 type  1   force =     0.00000000    0.00000000    0.00000000
     atom   47 type  1   force =     0.00000000    0.00000000    0.00000000
     atom   48 type  1   force =     0.00000000    0.00000000    0.00000000
     atom   49 type  1   force =     0.00000000    0.00000000    0.00000000
     atom   50 type  1   force =     0.00000000    0.00000000    0.00000000
     atom   51 type  1   force =     0.00000000    0.00000000    0.00000000
     atom   52 type  1   force =     0.00000000    0.00000000    0.00000000
     atom   53 type  1   force =     0.00000000    0.00000000    0.00000000
     atom   54 type  1   force =     0.00000000    0.00000000    0.00000000
     atom   55 type  1   force =     0.00000000    0.00000000    0.00000000
     atom   56 type  1   force =     0.00000000    0.00000000    0.00000000
     atom   57 type  1   force =     0.00000000    0.00000000    0.00000000
     atom   58 type  1   force =     0.00000000    0.00000000    0.00000000
     atom   59 type  1   force =     0.00000000    0.00000000    0.00000000
     atom   60 type  1   force =     0.00000000    0.00000000    0.00000000
[...]
     atom  103 type  1   force =     0.00000000    0.00000000    0.00000000
     atom  104 type  1   force =     0.00000000    0.00000000    0.00000000
     atom  105 type  1   force =     0.00000000    0.00000000    0.00000000
     atom  106 type  1   force =     0.00000000    0.00000000    0.00000000
     atom  107 type  1   force =     0.00000000    0.00000000    0.00000000
     atom  108 type  1   force =     0.00000000    0.00000000    0.00000000
     atom  109 type  1   force =     0.00000000    0.00000000    0.00000000
     atom  110 type  1   force =     0.00000000    0.00000000    0.00000000
     atom  111 type  1   force =     0.00000000    0.00000000    0.00000000
     atom  112 type  1   force =     0.00000000    0.00000000    0.00000000
     atom  113 type  1   force =     0.00000000    0.00000000    0.00000000
     atom  114 type  1   force =     0.00000000    0.00000000    0.00000000
     atom  115 type  1   force =     0.00000000    0.00000000    0.00000000
     atom  116 type  1   force =     0.00000000    0.00000000    0.00000000
     atom  117 type  2   force =     0.00000000    0.00000000    0.00000000
     The SCF correction term to forces
     atom    1 type  1   force =     0.00002756    0.00000281    0.00002273
     atom    2 type  1   force =     0.00001738    0.00004660    0.00001655
     atom    3 type  1   force =     0.00001460    0.00001590    0.00002326
     atom    4 type  1   force =     0.00003169    0.00004422   -0.00001532
     atom    5 type  1   force =     0.00002756    0.00002275    0.00000281
     atom    6 type  1   force =     0.00001459    0.00002328    0.00001586
     atom    7 type  1   force =     0.00001736    0.00001655    0.00004658
     atom    8 type  1   force =     0.00005862   -0.00000370   -0.00000377
     atom    9 type  1   force =     0.00001225   -0.00000345   -0.00000349
     atom   10 type  1   force =     0.00002631   -0.00002719    0.00004499
     atom   11 type  1   force =     0.00002633    0.00004505   -0.00002721
     atom   12 type  1   force =     0.00002310   -0.00000856   -0.00003256
     atom   13 type  1   force =     0.00005993    0.00001402   -0.00001755
     atom   14 type  1   force =     0.00002042    0.00000962    0.00001582
     atom   15 type  1   force =     0.00002020   -0.00002216   -0.00001271
     atom   16 type  1   force =     0.00003535    0.00001871   -0.00002029
     atom   17 type  1   force =     0.00003171   -0.00001536    0.00004423
     atom   18 type  1   force =     0.00002311   -0.00003261   -0.00000859
     atom   19 type  1   force =     0.00005994   -0.00001756    0.00001402
     atom   20 type  1   force =     0.00002020   -0.00001271   -0.00002218
     atom   21 type  1   force =     0.00002042    0.00001578    0.00000959
     atom   22 type  1   force =     0.00008452   -0.00002880   -0.00002880
     atom   23 type  1   force =     0.00002518    0.00000959   -0.00000735
     atom   24 type  1   force =     0.00002519   -0.00000734    0.00000959
     atom   25 type  1   force =     0.00003536   -0.00002033    0.00001872
     atom   26 type  1   force =    -0.00000709    0.00003107    0.00003104
     atom   27 type  1   force =    -0.00000814    0.00004881    0.00002751
     atom   28 type  1   force =    -0.00000815    0.00002754    0.00004879
     atom   29 type  1   force =     0.00000857    0.00008249    0.00002111
     atom   30 type  1   force =     0.00002985   -0.00000647   -0.00002837
     atom   31 type  1   force =    -0.00000280    0.00004616   -0.00000566
     atom   32 type  1   force =     0.00001144    0.00002181   -0.00001698
     atom   33 type  1   force =     0.00001319    0.00004824   -0.00000616
     atom   34 type  1   force =     0.00002179    0.00003905   -0.00000838
     atom   35 type  1   force =    -0.00000340    0.00004204   -0.00002020
     atom   36 type  1   force =     0.00001322    0.00005530    0.00003022
     atom   37 type  1   force =     0.00000749    0.00004177   -0.00002821
     atom   38 type  1   force =     0.00000857    0.00002115    0.00008244
     atom   39 type  1   force =     0.00002984   -0.00002835   -0.00000649
     atom   40 type  1   force =     0.00001144   -0.00001695    0.00002178
     atom   41 type  1   force =    -0.00000282   -0.00000567    0.00004615
     atom   42 type  1   force =    -0.00004338   -0.00000954   -0.00000957
     atom   43 type  1   force =     0.00002829   -0.00001149   -0.00001153
     atom   44 type  1   force =     0.00002303    0.00000297    0.00000607
     atom   45 type  1   force =     0.00002301    0.00000608    0.00000294
     atom   46 type  1   force =     0.00001235    0.00002017   -0.00000124
     atom   47 type  1   force =     0.00000236    0.00001057   -0.00000673
     atom   48 type  1   force =     0.00001637    0.00002819   -0.00001443
     atom   49 type  1   force =    -0.00000306    0.00002264    0.00001722
     atom   50 type  1   force =     0.00003716    0.00003273   -0.00003845
     atom   51 type  1   force =     0.00002027    0.00001397   -0.00004878
     atom   52 type  1   force =     0.00001318   -0.00000618    0.00004822
     atom   53 type  1   force =     0.00002178   -0.00000841    0.00003905
     atom   54 type  1   force =     0.00001320    0.00003022    0.00005530
     atom   55 type  1   force =    -0.00000341   -0.00002022    0.00004205
     atom   56 type  1   force =     0.00001233   -0.00000127    0.00002014
     atom   57 type  1   force =     0.00000234   -0.00000675    0.00001054
     atom   58 type  1   force =    -0.00000307    0.00001722    0.00002262
     atom   59 type  1   force =     0.00001635   -0.00001445    0.00002817
     atom   60 type  1   force =     0.00000292   -0.00003139   -0.00003139
[...]
     atom  103 type  1   force =    -0.00003227   -0.00003135   -0.00001671
     atom  104 type  1   force =    -0.00001634   -0.00002107   -0.00005923
     atom  105 type  1   force =     0.00000564   -0.00004615    0.00003185
     atom  106 type  1   force =    -0.00003360   -0.00005380    0.00000590
     atom  107 type  1   force =    -0.00001634   -0.00005923   -0.00002105
     atom  108 type  1   force =    -0.00004741    0.00003468    0.00000540
     atom  109 type  1   force =    -0.00004741    0.00000541    0.00003466
     atom  110 type  1   force =    -0.00006347    0.00002301    0.00002301
     atom  111 type  1   force =    -0.00005002    0.00000903    0.00000903
     atom  112 type  1   force =    -0.00006442    0.00003005   -0.00000919
     atom  113 type  1   force =    -0.00005769    0.00000078   -0.00003421
     atom  114 type  1   force =    -0.00006441   -0.00000920    0.00003003
     atom  115 type  1   force =    -0.00005768   -0.00003421    0.00000078
     atom  116 type  1   force =    -0.00006466   -0.00001881   -0.00001879
     atom  117 type  2   force =    -0.00000335   -0.00000214   -0.00000214

     Total force =     0.004344     Total SCF correction =     0.000527
     SCF correction compared to forces is large: reduce conv_thr to get better values
     Energy error            =      3.1E-05 Ry
     Gradient error          =      8.8E-04 Ry/Bohr

     bfgs converged in  11 scf cycles and  10 bfgs steps
     (criteria: energy <  1.0E-04 Ry, force <  1.0E-03 Ry/Bohr)

     End of BFGS Geometry Optimization

     Final energy             =  -24449.0206780421 Ry

     File ./out/calc.bfgs deleted, as requested
Begin final coordinates

ATOMIC_POSITIONS (angstrom)
Pt              -5.7951605798       -3.8537262624        0.0125920408
Pt              -3.8336717188       -5.7884628211        0.0020260296
Pt              -4.0522796665       -4.0482631498       -2.1172887708
Pt              -4.0382870693       -4.0273206482        2.1105951180
Pt              -5.7951605798        0.0125920408       -3.8537262624
Pt              -4.0522796665       -2.1172887708       -4.0482631498
Pt              -3.8336717188        0.0020260296       -5.7884628211
Pt              -5.9326887214       -1.9788999129       -1.9788999129
Pt              -5.9264167302       -0.0127636976       -0.0127636976
Pt              -3.9046600275       -1.9781418692       -0.0327960799
Pt              -3.9046600275       -0.0327960799       -1.9781418692
Pt              -5.8409108350       -1.9502791413        1.9566644406
Pt              -5.7851301839        0.0002841993        3.8392147223
Pt              -4.0484336608       -2.1209425674        4.0560628330
Pt              -3.8786474219       -0.0176704738        1.9560460324
Pt              -3.8421089154       -0.0004058770        5.7913989699
Pt              -4.0382870693        2.1105951180       -4.0273206482
Pt              -5.8409108350        1.9566644406       -1.9502791413
Pt              -5.7851301839        3.8392147223        0.0002841993
Pt              -3.8786474219        1.9560460324       -0.0176704738
Pt              -4.0484336608        4.0560628330       -2.1209425674
Pt              -5.8219338751        1.9452262817        1.9452262817
Pt              -4.0493008071        2.1201511800        4.0484214711
Pt              -4.0493008071        4.0484214711        2.1201511800
Pt              -3.8421089154        5.7913989699       -0.0004058770
Pt              -2.1229595432       -4.0456924882       -4.0456924882
Pt              -0.0006528911       -5.7882075144       -3.8399611795
Pt              -0.0006528911       -3.8399611795       -5.7882075144
Pt              -1.9507318698       -5.8372416956       -1.9481062142
Pt              -1.9739169973       -3.8652718455        0.0079027115
Pt              -0.0030037898       -5.9178184067       -0.0037007518
Pt              -0.0034376085       -3.8780942057       -1.9658294952
Pt              -1.9461638018       -5.8360997409        1.9499872616
Pt              -2.1193267650       -4.0448948360        4.0464108351
Pt              -0.0023502124       -5.7868748975        3.8447484092
Pt              -0.0008546035       -3.8742975101        1.9682240307
Pt               0.0029324865       -3.8443122654        5.7969492062
Pt              -1.9507318698       -1.9481062142       -5.8372416956
Pt              -1.9739169973        0.0079027115       -3.8652718455
Pt              -0.0034376085       -1.9658294952       -3.8780942057
Pt              -0.0030037898       -0.0037007518       -5.9178184067
Pt              -2.0287822702       -2.0365436788       -2.0365436788
Pt              -1.9733636339       -0.0172498963       -0.0172498963
Pt               0.0005363083       -1.9609129566       -0.0005540912
Pt               0.0005363083       -0.0005540912       -1.9609129566
Pt              -2.0168247224       -2.0174104457        2.0411890388
Pt              -1.9704774057       -0.0011550118        3.8771432944
Pt               0.0142468038       -1.9704557825        3.8909567914
Pt              -0.0021459417        0.0003404433        1.9611053827
Pt              -1.9478713370       -1.9523546414        5.8379598776
Pt               0.0001853617        0.0026606928        5.9208881026
Pt              -1.9461638018        1.9499872616       -5.8360997409
Pt              -2.1193267650        4.0464108351       -4.0448948360
Pt              -0.0008546035        1.9682240307       -3.8742975101
Pt              -0.0023502124        3.8447484092       -5.7868748975
Pt              -2.0168247224        2.0411890388       -2.0174104457
Pt              -1.9704774057        3.8771432944       -0.0011550118
Pt              -0.0021459417        1.9611053827        0.0003404433
Pt               0.0142468038        3.8909567914       -1.9704557825
Pt              -2.0402746083        2.0232826922        2.0232826922
[...]
Pt               4.0486524695        4.0479290555        2.1192781822
Pt               1.9517052781        1.9506176548        5.8398429508
Pt               1.9537050202        5.8382413502       -1.9509395945
Pt               3.8430324917        5.7926422454       -0.0028426271
Pt               1.9517052781        5.8398429508        1.9506176548
Pt               5.7892775209       -3.8404093494       -0.0010896412
Pt               5.7892775209       -0.0010896412       -3.8404093494
Pt               5.8372294389       -1.9499217856       -1.9499217856
Pt               5.9169005933        0.0001690924        0.0001690924
Pt               5.8371468760       -1.9509708396        1.9502687716
Pt               5.7888884011        0.0010321899        3.8425549135
Pt               5.8371468760        1.9502687716       -1.9509708396
Pt               5.7888884011        3.8425549135        0.0010321899
Pt               5.8409180886        1.9494804913        1.9494804913
H               -7.2919675361       -2.5342736686       -2.5342736686
End final coordinates

     Writing all to output data dir ./out/calc.save/ :
     XML data file, charge density, pseudopotentials, collected wavefunctions

     General routines

     Parallel routines

   This run was terminated on:   5:15:27   3May2025

   JOB DONE.