     Program PWSCF v.7.3.1 starts on 18Jan2025 at 15:50: 9

     Reading input from espresso.pwi
Warning: card   &CELL ignored
Warning: card      CELL_DOFREE = 'IBRAV' ignored
Warning: card / ignored

     Current dimensions of program PWSCF are:
     Max number of different atomic species (ntypx) = 10
     Max number of k-points (npk) =  40000
     Max angular momentum in pseudopotentials (lmaxx) =  4

     IMPORTANT: XC functional enforced from input :
     Exchange-correlation= RVV10
                           (   1   4  13   4  26   0   0)
     Any further DFT definition will be discarded
     Please, verify this is what you really want

     gamma-point specific algorithms are used
     Message from routine setup:
     using ibrav=0 with symmetry is DISCOURAGED, use correct ibrav instead

     R & G space division:  proc/nbgrp/npool/nimage =      36
     Subspace diagonalization in iterative solution of the eigenvalue problem:
     one sub-group per band group will be used

     Using Slab Decomposition

     Title:
     calc

     bravais-lattice index     =            0
     lattice parameter (alat)  =      34.0151  a.u.
     unit-cell volume          =   39356.2868 (a.u.)^3
     number of atoms/cell      =           56
     number of atomic types    =            2
     number of electrons       =       881.00
     number of Kohn-Sham states=          529
     kinetic-energy cutoff     =      60.0000  Ry
     charge density cutoff     =     480.0000  Ry
     scf convergence threshold =      1.0E-06
     mixing beta               =       0.2000
     number of iterations used =            8  plain     mixing
     energy convergence thresh.=      1.0E-04
     force convergence thresh. =      1.0E-03
     Exchange-correlation= RVV10
                           (   1   4  13   4  26   0   0)
     nstep                     =        10000

     celldm(1)=  34.015070  celldm(2)=   0.000000  celldm(3)=   0.000000
     celldm(4)=   0.000000  celldm(5)=   0.000000  celldm(6)=   0.000000

     crystal axes: (cart. coord. in units of alat)
               a(1) = (   1.000000   0.000000   0.000000 )
               a(2) = (   0.000000   1.000000   0.000000 )
               a(3) = (   0.000000   0.000000   1.000000 )

     reciprocal axes: (cart. coord. in units 2 pi/alat)
               b(1) = (  1.000000  0.000000  0.000000 )
               b(2) = (  0.000000  1.000000  0.000000 )
               b(3) = (  0.000000  0.000000  1.000000 )

     PseudoPot. # 1 for Pt read from file:
     /home/james/work/espresso/SSSP_1.3.0_PBE_efficiency/pt_pbe_v1.4.uspp.F.UPF
     MD5 check sum: f09d6de1a584b5a045c4fc126da2d0c4
     Pseudo is Ultrasoft + core correction, Zval = 16.0
     Generated by new atomic code, or converted to UPF format
     Using radial grid of  985 points,  6 beta functions with:
                l(1) =   0
                l(2) =   0
                l(3) =   1
                l(4) =   1
                l(5) =   2
                l(6) =   2
     Q(r) pseudized with  8 coefficients,  rinner =    1.300   1.300   1.300
                                                       1.300   1.300

     PseudoPot. # 2 for H  read from file:
     /home/james/work/espresso/SSSP_1.3.0_PBE_efficiency/H.pbe-rrkjus_psl.1.0.0.UPF
     MD5 check sum: f52b6d4d1c606e5624b1dc7b2218f220
     Pseudo is Ultrasoft, Zval =  1.0
     Generated using "atomic" code by A. Dal Corso  v.5.1
     Using radial grid of  929 points,  2 beta functions with:
                l(1) =   0
                l(2) =   0
     Q(r) pseudized with 0 coefficients

     atomic species   valence    mass     pseudopotential
     Pt               16.00   195.08400     Pt( 1.00)
     H                 1.00     1.00800     H ( 1.00)

     Starting magnetic structure
     atomic species   magnetization
     Pt              0.010
     H               0.020

      2 Sym. Ops. (no inversion) found

                                    s                        frac. trans.

      isym =  1     identity

 cryst.   s( 1) = (     1          0          0      )
                  (     0          1          0      )
                  (     0          0          1      )

 cart.    s( 1) = (  1.0000000  0.0000000  0.0000000 )
                  (  0.0000000  1.0000000  0.0000000 )
                  (  0.0000000  0.0000000  1.0000000 )

      isym =  2     inv. 180 deg rotation - cart. axis [1,-1,0]

 cryst.   s( 2) = (     0          1          0      )
                  (     1          0          0      )
                  (     0          0          1      )

 cart.    s( 2) = (  0.0000000  1.0000000  0.0000000 )
                  (  1.0000000  0.0000000  0.0000000 )
                  (  0.0000000  0.0000000  1.0000000 )

   Cartesian axes

     site n.     atom                  positions (alat units)
         1        Pt     tau(   1) = (  -0.2177778  -0.1088889  -0.1088889  )
         2        Pt     tau(   2) = (  -0.1088889  -0.2177778  -0.1088889  )
         3        Pt     tau(   3) = (  -0.1088889  -0.1088889  -0.2177778  )
         4        Pt     tau(   4) = (  -0.2177778  -0.2177778   0.0000000  )
         5        Pt     tau(   5) = (  -0.2177778  -0.1088889   0.1088889  )
         6        Pt     tau(   6) = (  -0.1088889  -0.2177778   0.1088889  )
         7        Pt     tau(   7) = (  -0.1088889  -0.1088889   0.0000000  )
         8        Pt     tau(   8) = (  -0.1088889  -0.1088889   0.2177778  )
         9        Pt     tau(   9) = (  -0.2177778   0.0000000  -0.2177778  )
        10        Pt     tau(  10) = (  -0.2177778   0.1088889  -0.1088889  )
        11        Pt     tau(  11) = (  -0.1088889   0.0000000  -0.1088889  )
        12        Pt     tau(  12) = (  -0.1088889   0.1088889  -0.2177778  )
        13        Pt     tau(  13) = (  -0.2177778   0.0000000   0.0000000  )
        14        Pt     tau(  14) = (  -0.2177778   0.1088889   0.1088889  )
        15        Pt     tau(  15) = (  -0.1088889   0.0000000   0.1088889  )
        16        Pt     tau(  16) = (  -0.1088889   0.1088889   0.0000000  )
        17        Pt     tau(  17) = (  -0.2177778   0.0000000   0.2177778  )
        18        Pt     tau(  18) = (  -0.1088889   0.1088889   0.2177778  )
        19        Pt     tau(  19) = (  -0.1088889   0.2177778  -0.1088889  )
        20        Pt     tau(  20) = (  -0.2177778   0.2177778   0.0000000  )
        21        Pt     tau(  21) = (  -0.1088889   0.2177778   0.1088889  )
        22        Pt     tau(  22) = (   0.0000000  -0.2177778  -0.2177778  )
        23        Pt     tau(  23) = (   0.0000000  -0.1088889  -0.1088889  )
        24        Pt     tau(  24) = (   0.1088889  -0.2177778  -0.1088889  )
        25        Pt     tau(  25) = (   0.1088889  -0.1088889  -0.2177778  )
        26        Pt     tau(  26) = (   0.0000000  -0.2177778   0.0000000  )
        27        Pt     tau(  27) = (   0.0000000  -0.1088889   0.1088889  )
        28        Pt     tau(  28) = (   0.1088889  -0.2177778   0.1088889  )
        29        Pt     tau(  29) = (   0.1088889  -0.1088889   0.0000000  )
        30        Pt     tau(  30) = (   0.0000000  -0.2177778   0.2177778  )
        31        Pt     tau(  31) = (   0.1088889  -0.1088889   0.2177778  )
        32        Pt     tau(  32) = (   0.0000000   0.0000000  -0.2177778  )
        33        Pt     tau(  33) = (   0.0000000   0.1088889  -0.1088889  )
        34        Pt     tau(  34) = (   0.1088889   0.0000000  -0.1088889  )
        35        Pt     tau(  35) = (   0.1088889   0.1088889  -0.2177778  )
        36        Pt     tau(  36) = (   0.0000000   0.0000000   0.0000000  )
        37        Pt     tau(  37) = (   0.0000000   0.1088889   0.1088889  )
        38        Pt     tau(  38) = (   0.1088889   0.0000000   0.1088889  )
        39        Pt     tau(  39) = (   0.1088889   0.1088889   0.0000000  )
        40        Pt     tau(  40) = (   0.0000000   0.0000000   0.2177778  )
        41        Pt     tau(  41) = (   0.1088889   0.1088889   0.2177778  )
        42        Pt     tau(  42) = (   0.0000000   0.2177778  -0.2177778  )
        43        Pt     tau(  43) = (   0.1088889   0.2177778  -0.1088889  )
        44        Pt     tau(  44) = (   0.0000000   0.2177778   0.0000000  )
        45        Pt     tau(  45) = (   0.1088889   0.2177778   0.1088889  )
        46        Pt     tau(  46) = (   0.0000000   0.2177778   0.2177778  )
        47        Pt     tau(  47) = (   0.2177778  -0.1088889  -0.1088889  )
        48        Pt     tau(  48) = (   0.2177778  -0.2177778   0.0000000  )
        49        Pt     tau(  49) = (   0.2177778  -0.1088889   0.1088889  )
        50        Pt     tau(  50) = (   0.2177778   0.0000000  -0.2177778  )
        51        Pt     tau(  51) = (   0.2177778   0.1088889  -0.1088889  )
        52        Pt     tau(  52) = (   0.2177778   0.0000000   0.0000000  )
        53        Pt     tau(  53) = (   0.2177778   0.1088889   0.1088889  )
        54        Pt     tau(  54) = (   0.2177778   0.0000000   0.2177778  )
        55        Pt     tau(  55) = (   0.2177778   0.2177778   0.0000000  )
        56        H      tau(  56) = (  -0.2231790  -0.2231790  -0.1142901  )

   Crystallographic axes

     site n.     atom                  positions (cryst. coord.)
         1        Pt     tau(   1) = ( -0.2177778 -0.1088889 -0.1088889  )
         2        Pt     tau(   2) = ( -0.1088889 -0.2177778 -0.1088889  )
         3        Pt     tau(   3) = ( -0.1088889 -0.1088889 -0.2177778  )
         4        Pt     tau(   4) = ( -0.2177778 -0.2177778  0.0000000  )
         5        Pt     tau(   5) = ( -0.2177778 -0.1088889  0.1088889  )
         6        Pt     tau(   6) = ( -0.1088889 -0.2177778  0.1088889  )
         7        Pt     tau(   7) = ( -0.1088889 -0.1088889  0.0000000  )
         8        Pt     tau(   8) = ( -0.1088889 -0.1088889  0.2177778  )
         9        Pt     tau(   9) = ( -0.2177778  0.0000000 -0.2177778  )
        10        Pt     tau(  10) = ( -0.2177778  0.1088889 -0.1088889  )
        11        Pt     tau(  11) = ( -0.1088889  0.0000000 -0.1088889  )
        12        Pt     tau(  12) = ( -0.1088889  0.1088889 -0.2177778  )
        13        Pt     tau(  13) = ( -0.2177778  0.0000000  0.0000000  )
        14        Pt     tau(  14) = ( -0.2177778  0.1088889  0.1088889  )
        15        Pt     tau(  15) = ( -0.1088889  0.0000000  0.1088889  )
        16        Pt     tau(  16) = ( -0.1088889  0.1088889  0.0000000  )
        17        Pt     tau(  17) = ( -0.2177778  0.0000000  0.2177778  )
        18        Pt     tau(  18) = ( -0.1088889  0.1088889  0.2177778  )
        19        Pt     tau(  19) = ( -0.1088889  0.2177778 -0.1088889  )
        20        Pt     tau(  20) = ( -0.2177778  0.2177778  0.0000000  )
        21        Pt     tau(  21) = ( -0.1088889  0.2177778  0.1088889  )
        22        Pt     tau(  22) = (  0.0000000 -0.2177778 -0.2177778  )
        23        Pt     tau(  23) = (  0.0000000 -0.1088889 -0.1088889  )
        24        Pt     tau(  24) = (  0.1088889 -0.2177778 -0.1088889  )
        25        Pt     tau(  25) = (  0.1088889 -0.1088889 -0.2177778  )
[...]
     atom   12 type  1   force =     0.00783913   -0.00887573    0.02577672
     atom   13 type  1   force =     0.02984169    0.00020316    0.00069552
     atom   14 type  1   force =     0.02547997   -0.00796547   -0.00819952
     atom   15 type  1   force =    -0.00487232   -0.00015007    0.00440018
     atom   16 type  1   force =    -0.00474291    0.00452228    0.00006121
     atom   17 type  1   force =     0.01217658   -0.00034388   -0.01284194
     atom   18 type  1   force =     0.00768551   -0.00885766   -0.02579713
     atom   19 type  1   force =     0.00840765   -0.02591166    0.00816787
     atom   20 type  1   force =     0.01293889   -0.01274170   -0.00034684
     atom   21 type  1   force =     0.00825930   -0.02565399   -0.00832140
     atom   22 type  1   force =    -0.00048951    0.01265870    0.01366543
     atom   23 type  1   force =     0.00042669   -0.00397394   -0.00420168
     atom   24 type  1   force =    -0.00828560    0.02558127    0.00854088
     atom   25 type  1   force =    -0.00887572    0.00783912    0.02577669
     atom   26 type  1   force =     0.00020317    0.02984169    0.00069552
     atom   27 type  1   force =    -0.00015007   -0.00487232    0.00440018
     atom   28 type  1   force =    -0.00796546    0.02547994   -0.00819951
     atom   29 type  1   force =     0.00452228   -0.00474291    0.00006121
     atom   30 type  1   force =    -0.00034388    0.01217654   -0.01284189
     atom   31 type  1   force =    -0.00885765    0.00768550   -0.02579710
     atom   32 type  1   force =    -0.00019496   -0.00019496    0.03022681
     atom   33 type  1   force =     0.00014602    0.00473408   -0.00477509
     atom   34 type  1   force =     0.00473409    0.00014601   -0.00477509
     atom   35 type  1   force =    -0.00782059   -0.00782059    0.02466939
     atom   36 type  1   force =     0.00051496    0.00051496    0.00041773
     atom   37 type  1   force =    -0.00001680    0.00469782    0.00472502
     atom   38 type  1   force =     0.00469782   -0.00001681    0.00472502
     atom   39 type  1   force =     0.00542258    0.00542258    0.00025383
     atom   40 type  1   force =    -0.00028088   -0.00028088   -0.03096481
     atom   41 type  1   force =    -0.00830074   -0.00830074   -0.02517680
     atom   42 type  1   force =     0.00037453   -0.01302060    0.01352110
     atom   43 type  1   force =    -0.00810039   -0.02586916    0.00848040
     atom   44 type  1   force =     0.00033511   -0.03058735   -0.00010232
     atom   45 type  1   force =    -0.00837344   -0.02559202   -0.00821217
     atom   46 type  1   force =     0.00055778   -0.01173707   -0.01265125
     atom   47 type  1   force =    -0.02591163    0.00840764    0.00816786
     atom   48 type  1   force =    -0.01274162    0.01293880   -0.00034684
     atom   49 type  1   force =    -0.02565395    0.00825928   -0.00832139
     atom   50 type  1   force =    -0.01302055    0.00037454    0.01352104
     atom   51 type  1   force =    -0.02586915   -0.00810039    0.00848040
     atom   52 type  1   force =    -0.03058736    0.00033510   -0.00010232
     atom   53 type  1   force =    -0.02559201   -0.00837344   -0.00821217
     atom   54 type  1   force =    -0.01173702    0.00055779   -0.01265118
     atom   55 type  1   force =    -0.01341979   -0.01341977   -0.00096823
     atom   56 type  2   force =     0.00000000    0.00000000    0.00000000
     The Hubbard contrib.    to forces
     atom    1 type  1   force =     0.00000000    0.00000000    0.00000000
     atom    2 type  1   force =     0.00000000    0.00000000    0.00000000
     atom    3 type  1   force =     0.00000000    0.00000000    0.00000000
     atom    4 type  1   force =     0.00000000    0.00000000    0.00000000
     atom    5 type  1   force =     0.00000000    0.00000000    0.00000000
     atom    6 type  1   force =     0.00000000    0.00000000    0.00000000
     atom    7 type  1   force =     0.00000000    0.00000000    0.00000000
     atom    8 type  1   force =     0.00000000    0.00000000    0.00000000
     atom    9 type  1   force =     0.00000000    0.00000000    0.00000000
     atom   10 type  1   force =     0.00000000    0.00000000    0.00000000
     atom   11 type  1   force =     0.00000000    0.00000000    0.00000000
     atom   12 type  1   force =     0.00000000    0.00000000    0.00000000
     atom   13 type  1   force =     0.00000000    0.00000000    0.00000000
     atom   14 type  1   force =     0.00000000    0.00000000    0.00000000
     atom   15 type  1   force =     0.00000000    0.00000000    0.00000000
     atom   16 type  1   force =     0.00000000    0.00000000    0.00000000
     atom   17 type  1   force =     0.00000000    0.00000000    0.00000000
     atom   18 type  1   force =     0.00000000    0.00000000    0.00000000
     atom   19 type  1   force =     0.00000000    0.00000000    0.00000000
     atom   20 type  1   force =     0.00000000    0.00000000    0.00000000
     atom   21 type  1   force =     0.00000000    0.00000000    0.00000000
     atom   22 type  1   force =     0.00000000    0.00000000    0.00000000
     atom   23 type  1   force =     0.00000000    0.00000000    0.00000000
     atom   24 type  1   force =     0.00000000    0.00000000    0.00000000
     atom   25 type  1   force =     0.00000000    0.00000000    0.00000000
     atom   26 type  1   force =     0.00000000    0.00000000    0.00000000
     atom   27 type  1   force =     0.00000000    0.00000000    0.00000000
     atom   28 type  1   force =     0.00000000    0.00000000    0.00000000
     atom   29 type  1   force =     0.00000000    0.00000000    0.00000000
     atom   30 type  1   force =     0.00000000    0.00000000    0.00000000
     atom   31 type  1   force =     0.00000000    0.00000000    0.00000000
     atom   32 type  1   force =     0.00000000    0.00000000    0.00000000
     atom   33 type  1   force =     0.00000000    0.00000000    0.00000000
     atom   34 type  1   force =     0.00000000    0.00000000    0.00000000
     atom   35 type  1   force =     0.00000000    0.00000000    0.00000000
     atom   36 type  1   force =     0.00000000    0.00000000    0.00000000
     atom   37 type  1   force =     0.00000000    0.00000000    0.00000000
     atom   38 type  1   force =     0.00000000    0.00000000    0.00000000
     atom   39 type  1   force =     0.00000000    0.00000000    0.00000000
     atom   40 type  1   force =     0.00000000    0.00000000    0.00000000
     atom   41 type  1   force =     0.00000000    0.00000000    0.00000000
     atom   42 type  1   force =     0.00000000    0.00000000    0.00000000
     atom   43 type  1   force =     0.00000000    0.00000000    0.00000000
     atom   44 type  1   force =     0.00000000    0.00000000    0.00000000
     atom   45 type  1   force =     0.00000000    0.00000000    0.00000000
     atom   46 type  1   force =     0.00000000    0.00000000    0.00000000
     atom   47 type  1   force =     0.00000000    0.00000000    0.00000000
     atom   48 type  1   force =     0.00000000    0.00000000    0.00000000
     atom   49 type  1   force =     0.00000000    0.00000000    0.00000000
     atom   50 type  1   force =     0.00000000    0.00000000    0.00000000
     atom   51 type  1   force =     0.00000000    0.00000000    0.00000000
     atom   52 type  1   force =     0.00000000    0.00000000    0.00000000
     atom   53 type  1   force =     0.00000000    0.00000000    0.00000000
     atom   54 type  1   force =     0.00000000    0.00000000    0.00000000
     atom   55 type  1   force =     0.00000000    0.00000000    0.00000000
     atom   56 type  2   force =     0.00000000    0.00000000    0.00000000
     The SCF correction term to forces
     atom    1 type  1   force =    -0.00002405   -0.00005303   -0.00002135
     atom    2 type  1   force =    -0.00004518   -0.00002522   -0.00002060
     atom    3 type  1   force =    -0.00002375   -0.00003105   -0.00002189
     atom    4 type  1   force =    -0.00002887   -0.00003228   -0.00002502
     atom    5 type  1   force =    -0.00005507   -0.00005781   -0.00002427
     atom    6 type  1   force =    -0.00004923   -0.00005643   -0.00002465
     atom    7 type  1   force =    -0.00008112   -0.00009159   -0.00003841
     atom    8 type  1   force =    -0.00001649   -0.00002478    0.00003198
     atom    9 type  1   force =    -0.00000960   -0.00003587   -0.00002872
     atom   10 type  1   force =    -0.00004583    0.00000005   -0.00004893
     atom   11 type  1   force =    -0.00005436   -0.00004968   -0.00008483
     atom   12 type  1   force =    -0.00000729   -0.00001119   -0.00006880
     atom   13 type  1   force =    -0.00006538   -0.00004011   -0.00002080
     atom   14 type  1   force =    -0.00003897    0.00003620    0.00004366
     atom   15 type  1   force =    -0.00003543    0.00000862    0.00004705
     atom   16 type  1   force =    -0.00003197    0.00004552    0.00001638
     atom   17 type  1   force =    -0.00003146    0.00001284    0.00003251
     atom   18 type  1   force =     0.00002813    0.00006362    0.00005299
     atom   19 type  1   force =    -0.00001144    0.00004591   -0.00004571
     atom   20 type  1   force =    -0.00003391    0.00004428    0.00001822
     atom   21 type  1   force =     0.00001893    0.00004932    0.00008250
     atom   22 type  1   force =    -0.00002917   -0.00000845   -0.00002431
     atom   23 type  1   force =    -0.00003600   -0.00006233   -0.00008248
     atom   24 type  1   force =     0.00000498   -0.00003925   -0.00004335
     atom   25 type  1   force =    -0.00000581   -0.00000995   -0.00006101
     atom   26 type  1   force =    -0.00002965   -0.00006173   -0.00002027
     atom   27 type  1   force =     0.00002296   -0.00004411    0.00004529
     atom   28 type  1   force =     0.00004098   -0.00003214    0.00003889
     atom   29 type  1   force =     0.00005560   -0.00003749    0.00001696
     atom   30 type  1   force =     0.00001999   -0.00003027    0.00002798
     atom   31 type  1   force =     0.00006899    0.00002510    0.00004507
     atom   32 type  1   force =    -0.00000861   -0.00001879   -0.00006978
     atom   33 type  1   force =     0.00001323    0.00002416   -0.00008892
     atom   34 type  1   force =     0.00003633   -0.00000050   -0.00008610
     atom   35 type  1   force =     0.00000953   -0.00000050   -0.00006458
     atom   36 type  1   force =     0.00000980   -0.00000749    0.00000261
     atom   37 type  1   force =     0.00004800    0.00007544    0.00011731
     atom   38 type  1   force =     0.00008794    0.00003367    0.00011496
     atom   39 type  1   force =     0.00006435    0.00004932    0.00004901
     atom   40 type  1   force =     0.00005889    0.00004777    0.00005830
     atom   41 type  1   force =     0.00003585    0.00002517    0.00003667
     atom   42 type  1   force =     0.00001244    0.00000899   -0.00005913
     atom   43 type  1   force =     0.00003356    0.00003352   -0.00003281
     atom   44 type  1   force =     0.00002454    0.00006134    0.00004636
     atom   45 type  1   force =     0.00002313    0.00001424    0.00008379
     atom   46 type  1   force =     0.00003052    0.00001182    0.00004075
     atom   47 type  1   force =     0.00004133   -0.00001265   -0.00003928
     atom   48 type  1   force =     0.00003987   -0.00002628    0.00001856
     atom   49 type  1   force =     0.00004441    0.00001765    0.00007666
     atom   50 type  1   force =     0.00000906    0.00000566   -0.00005276
     atom   51 type  1   force =     0.00003666    0.00002194   -0.00003127
     atom   52 type  1   force =     0.00005856    0.00001408    0.00004665
     atom   53 type  1   force =     0.00001751    0.00001115    0.00008244
     atom   54 type  1   force =     0.00001172    0.00002330    0.00003437
     atom   55 type  1   force =     0.00002730    0.00002085    0.00003576
     atom   56 type  2   force =     0.00000009   -0.00000011    0.00000177

     Total force =     0.003637     Total SCF correction =     0.000561
     SCF correction compared to forces is large: reduce conv_thr to get better values
     Energy error            =      2.8E-05 Ry
     Gradient error          =      7.3E-04 Ry/Bohr

     bfgs converged in  27 scf cycles and  26 bfgs steps
     (criteria: energy <  1.0E-04 Ry, force <  1.0E-03 Ry/Bohr)

     End of BFGS Geometry Optimization

     Final energy             =  -11591.5161448697 Ry

     File ./out/calc.bfgs deleted, as requested
Begin final coordinates

ATOMIC_POSITIONS (angstrom)
Pt              -3.9493486830       -1.9418185786       -2.0343155556
Pt              -1.9418185786       -3.9493486830       -2.0343155556
Pt              -1.8729666595       -1.8729666595       -4.0085748109
Pt              -3.7819414338       -3.7819414338        0.0277379960
Pt              -3.9174220933       -1.9222628442        1.9700677527
Pt              -1.9222628442       -3.9174220933        1.9700677527
Pt              -1.9392679668       -1.9392679668       -0.0214153541
Pt              -1.9007617310       -1.9007617310        3.9796083553
Pt              -3.8070478028        0.0226545521       -3.8408658822
Pt              -3.9505304528        1.8933692166       -1.8996445341
Pt              -1.9463212260       -0.0181809576       -1.9434246687
Pt              -1.9135567605        1.9232149492       -3.9188012490
Pt              -4.1237968117       -0.0748017774       -0.0193931205
Pt              -3.9377842116        1.8718642575        1.8907852009
Pt              -1.9341910160       -0.0161948684        1.9247995152
Pt              -1.9387323552        1.9124343011       -0.0132728088
Pt              -3.7819722546        0.0186198659        3.8557547178
Pt              -1.9115050311        1.9198936054        3.9194711107
Pt              -1.9201107972        3.9362831725       -1.9015121493
Pt              -3.8199925301        3.7950133429        0.0011293437
Pt              -1.9106655064        3.9271042830        1.8945975899
Pt               0.0226545521       -3.8070478028       -3.8408658822
Pt              -0.0181809576       -1.9463212260       -1.9434246687
Pt               1.8933692166       -3.9505304528       -1.8996445341
Pt               1.9232149492       -1.9135567605       -3.9188012490
Pt              -0.0748017774       -4.1237968117       -0.0193931205
Pt              -0.0161948684       -1.9341910160        1.9247995152
Pt               1.8718642575       -3.9377842116        1.8907852009
Pt               1.9124343011       -1.9387323552       -0.0132728088
Pt               0.0186198659       -3.7819722546        3.8557547178
Pt               1.9198936054       -1.9115050311        3.9194711107
Pt               0.0232596751        0.0232596751       -4.1269627244
Pt              -0.0018011830        1.9284981055       -1.9280266101
Pt               1.9284981055       -0.0018011830       -1.9280266101
Pt               1.9270878400        1.9270878400       -3.9329171249
Pt              -0.0120339653       -0.0120339653       -0.0193720691
Pt              -0.0108951957        1.9133155229        1.9117623282
Pt               1.9133155229       -0.0108951957        1.9117623282
Pt               1.9245684884        1.9245684884       -0.0087854683
Pt              -0.0003418411       -0.0003418411        4.1235900767
Pt               1.8996796251        1.8996796251        3.9353366420
Pt               0.0025456916        3.8213744609       -3.7824603937
Pt               1.9316360789        3.9437782376       -1.9136518078
Pt               0.0138842960        4.1237507410       -0.0068313367
Pt               1.9112103260        3.9219102639        1.9169930991
Pt              -0.0029722657        3.8039807338        3.7986924607
Pt               3.9362831725       -1.9201107972       -1.9015121493
Pt               3.7950133429       -3.8199925301        0.0011293437
Pt               3.9271042830       -1.9106655064        1.8945975899
Pt               3.8213744609        0.0025456916       -3.7824603937
Pt               3.9437782376        1.9316360789       -1.9136518078
Pt               4.1237507410        0.0138842960       -0.0068313367
Pt               3.9219102639        1.9112103260        1.9169930991
Pt               3.8039807338       -0.0029722657        3.7986924607
Pt               3.8057260990        3.8057260990        0.0077672245
H               -3.8746609513       -3.8746609513       -1.7769407678
End final coordinates

     Writing all to output data dir ./out/calc.save/ :
     XML data file, charge density, pseudopotentials, collected wavefunctions

     General routines

     Parallel routines

   This run was terminated on:  12:52: 8  21Jan2025

   JOB DONE.